264 749 11
439 2 39 3 106 4 15 5 5
154 1 39 5 87
668 1 106 6 14 9 97 4 39
225 1 15 3 39 14 121 8 3 9 8 10 23 5 139
368 1 5 2 87 4 139 14 18
154 3 14 7 4 8 30 9 31 10 54 11 91
534 6 4 8 72 12 3 11 53 13 76
224 4 3 6 30 7 72 14 69 10 38 13 7
439 3 97 4 8 6 31 10 70
350 4 23 6 54 8 38 9 70
186 6 91 7 53 12 126
643 7 3 11 126 17 131 28 22 13 9
590 7 76 8 7 12 9 14 391 25 272 28 90 48 96
107 4 121 5 18 8 69 13 391
627 16 111 17 46 18 121 19 87
114 15 111 18 1 20 26 21 51 22 50 23 52
649 12 131 15 46 24 28 19 66 28 16
295 15 121 16 1 20 19 69 24 70 55 19 14 71 51 72 32
143 15 87 17 66 18 14 24 65 70 5 26 18
652 16 26 18 19 57 36 59 28 21 46 71 2 80 83 63 58
107 16 51 20 46 59 20 60 5 77 20 79 13 22 30
148 16 50 21 30 77 11 23 28
493 16 52 22 28 74 27 77 92
193 17 28 19 65 25 29 26 16 27 12 28 55
354 13 272 24 29 27 1 28 84 82 44 85 76 48 293
1144 19 18 24 16 70 58 27 61
1048 24 12 25 1 26 61 70 6 85 69
774 12 22 13 90 17 16 24 55 25 84
199 30 129 31 78
52 29 129 47 631 31 1 256 29 257 51 258 160 52 69
103 29 78 30 1 256 4 257 48 259 45 241 29
229 33 156 34 153 35 39 36 109 37 44
80 32 156 38 24 39 108 35 59 40 23
95 32 153 53 424 54 16 37 117
103 32 39 33 59 68 15 78 3 76 35 135 71 38 119 36 166
79 32 109 35 166 67 128 68 19 166 4 171 128 37 96
483 32 44 34 117 36 96 54 19 171 137
578 33 24 35 119 135 20 168 49 39 37 199 63
472 33 108 38 37 199 77 172 8 40 82
166 33 23 39 82 151 32 187 4 119 49 172 132 217 8 254 30 42 11 255 110 43 31
693 42 39 43 32 44 7 45 57 46 8
568 40 11 41 39 254 147 43 120
117 40 31 41 32 42 120 217 24 212 7 46 16 260 77
577 41 7 45 13 46 7 261 8 262 5
317 41 57 44 13 235 4 263 61 262 2
768 41 8 43 16 44 7 261 1 260 19
675 30 631 48 350 49 237 50 20 51 30 52 213
246 13 96 25 293 47 350 81 13 107 120 82 66 103 77 49 7
729 47 237 48 7 107 152 103 90 50 31
281 47 20 49 31 103 22 146 3 138 106 147 16 150 8 202 42 200 10 51 30 205 67
447 47 30 50 30 253 32 205 112 52 139
97 30 69 47 213 51 139 253 4 258 148 242 52 243 31
231 34 424 55 64 56 125 54 105
290 34 16 37 19 53 105 56 88 170 98 171 171
121 53 64 166 227 167 14 56 64
943 53 125 54 88 55 64 167 102 170 42
763 20 36 58 69 59 22 60 2 61 2 62 28 63 28
484 57 69 73 3 74 3 60 4 77 74 79 17 62 5 75 29
684 20 28 21 20 57 22 60 17 61 2
690 21 5 57 2 58 4 59 17 61 4 79 16
439 57 2 59 2 60 4
786 57 28 58 5 98 5 93 57 95 15 75 80 63 43 99 17 110 38
1420 20 58 57 28 62 43 95 25 80 19 113 44
1422 65 40 66 28 67 44 68 5
369 64 40 83 41 66 6 67 19
437 64 28 65 6 83 50 84 66 68 21 78 91
954 36 128 64 44 65 19 68 172
975 35 15 36 19 64 5 66 21 67 172 78 187
754 18 24 70 56 81 44 82 32 72 92
275 18 55 19 5 26 58 27 6 69 56 82 5 85 13
442 18 51 20 2 87 25 88 4 109 33 80 83 72 43 102 48
325 18 32 69 92 71 43 81 6 102 80
414 58 3 74 121 75 100 76 35
603 23 27 58 3 73 121 77 16 78 90 76 36
297 58 29 62 80 73 100 76 51 110 25
128 35 35 73 35 74 36 75 51 78 162 110 108 135 49
229 21 20 22 11 23 92 58 74 74 16 79 11
1038 35 3 66 91 68 187 74 90 76 162
545 21 13 58 17 60 16 77 11
791 20 83 63 19 71 83 108 4 109 40 111 3 114 11 113 14
298 48 13 69 44 72 6 87 46 82 97 102 19 103 126 104 31 105 3 106 16
121 25 44 48 66 69 32 70 5 81 97 85 79
1085 65 41 66 50 84 79
1050 66 66 83 79
1236 25 76 27 69 70 13 82 79
363 87 20 88 22 89 26 90 28 91 17
241 71 25 81 46 86 20 88 44 102 72 104 29 90 63
304 71 4 86 22 87 44 94 15 109 51 91 35
914 86 26 123 23 124 17 137 15 90 7 91 32
1233 86 28 87 63 89 7 104 60 137 23
1259 86 17 88 35 89 32 92 1 94 37 96 31 124 38
330 91 1 93 37 94 14 95 60 96 10 97 50
176 62 57 92 37 98 38 95 20 101 9 97 6
1666 88 15 91 37 92 14 108 45 95 15 109 34
454 62 15 63 25 92 60 93 20 94 15 108 20 112 15 111 9 113 10
362 91 31 92 10 115 10 128 18 117 9 118 30 124 25 97 54
561 92 50 93 6 96 54 128 8 101 38
144 62 5 93 38 99 35 100 27 101 25
565 62 17 98 35 100 25 110 56 135 35
754 98 27 99 25 128 33 101 18 135 21 130 17
294 93 9 97 38 98 25 100 18 128 23
619 71 48 72 80 81 19 87 72
847 48 77 49 90 50 22 81 126 107 48 138 22 105 69
461 81 31 87 29 90 60 122 23 123 19 137 18 106 96
509 81 3 103 69 132 1 138 116 160 11 157 16 106 51 162 1 134 48
1067 81 16 104 96 105 51 122 4 131 20 132 67 127 7
571 48 120 49 152 103 48
719 80 4 94 45 95 20 109 10 111 43
578 71 33 80 40 88 51 94 34 108 10
1771 62 38 75 25 76 108 99 56 135 95
1046 80 3 95 9 108 43 112 21 114 21
739 95 15 111 21 114 5 113 24
1616 63 44 80 14 95 10 112 24 114 19
966 80 11 111 21 112 5 113 19
678 96 10 116 27 117 26 118 73 119 31
1574 115 27 120 24 117 18 119 30
350 96 9 115 26 116 18 128 32 120 10 129 8
513 96 30 115 73 121 6 124 112 119 51
498 40 49 115 31 116 30 118 51 121 17 120 7 129 12 125 1 136 30 151 8 152 9 172 86
486 116 24 117 10 119 7 129 31
1314 118 6 119 17 122 31 123 20 124 75 125 105 126 16 127 13
1145 104 23 106 4 121 31 131 31 123 29 127 2
1113 89 23 104 19 121 20 122 29 124 43 137 27
530 89 17 91 38 96 25 118 112 121 75 123 43
1398 119 1 121 105 165 2 159 13 133 4 126 17 152 100
1233 121 16 125 17 133 15 127 8
174 106 7 121 13 122 2 126 8 131 14 132 16 133 2
312 96 18 97 8 100 33 101 23 117 32 129 27 130 6
794 117 8 119 12 120 31 128 27 130 17 136 34
824 100 17 128 6 129 17 135 102 136 40 168 79
1163 106 20 122 31 127 14
818 105 1 106 67 127 16 133 17 134 64
1172 125 4 126 15 127 2 132 17 155 4 159 17 134 15
879 105 48 132 64 133 15 155 3 162 32
717 35 71 38 20 76 49 99 35 100 21 110 95 130 102 168 17
415 119 30 129 34 130 40 168 39 172 18
254 89 15 90 23 104 18 123 27
700 50 106 103 22 105 116 146 4 147 18 157 5 149 1
1041 140 1 141 6 142 3 143 6 144 3 145 8
702 139 1 151 27 152 44 144 8 145 1 153 23
437 139 6 154 13 155 11 142 10 145 12 156 2
1066 139 3 141 10 155 4 164 4 165 1 158 13 143 1
1122 139 6 142 1 163 6 164 2 144 4
953 139 3 140 8 143 4 163 2 152 1
905 139 8 140 1 141 12 196 4 198 4 201 7 156 2 153 1
813 50 3 138 4 147 17 148 4 149 14 150 9
952 50 16 138 18 146 17
162 146 4 177 7 149 16 150 9 200 14 180 7
372 138 1 146 14 148 16 154 8 157 11 177 1 156 14
338 50 8 146 9 148 9 200 16
1013 40 32 119 8 140 27 181 59 182 5 183 1 184 8 185 4 152 67 186 8 153 11 187 44
1124 119 9 125 100 140 44 144 1 151 67 163 7 164 11 165 5
1117 140 23 145 1 151 11 186 10 201 5
719 141 13 149 8 155 9 157 11 156 16
797 133 4 134 3 141 11 142 4 154 9 158 5 159 1 160 1 157 2 161 8 162 10
315 141 2 145 2 149 14 154 16 196 5 177 20
1111 105 16 138 5 149 11 154 11 155 2 160 4 161 15
915 142 13 155 5 165 3 159 14
900 125 13 133 17 155 1 158 14 165 15
540 105 11 155 1 157 4 161 15 162 24
1227 155 8 157 15 160 15
1157 105 1 134 32 155 10 160 24
963 143 6 144 2 152 7 164 3
1143 142 4 143 2 152 11 163 3 165 13
1077 125 2 142 1 152 5 158 3 159 15 164 13
771 36 4 55 227 169 25 167 67 170 141 171 31
1309 55 14 56 102 166 67 169 26 170 1
435 38 49 130 79 135 17 136 39 199 62 172 73
746 166 25 167 26 170 17
1036 54 98 56 42 166 141 167 1 169 17 171 33
516 36 128 37 137 54 171 166 31 170 33
424 39 8 40 132 119 86 136 18 168 73 199 35
1083 174 2 175 9 176 3 177 18 178 1 179 1 180 20
943 173 2 175 9 188 1 179 9 189 1 190 2 191 1 192 4
742 173 9 174 9 176 10 191 1
734 173 3 175 10 193 10 196 1 177 2 191 2
772 148 7 149 1 156 20 173 18 176 2 196 11 180 3
1014 173 1 203 8 220 20 179 12 180 22 221 2
1105 173 1 174 9 178 12 220 1 223 4 222 3 189 4
774 148 7 173 20 177 3 178 22 202 1 200 9 203 10
1031 151 59 182 13 193 1 194 3 187 28 190 19 191 5 192 24
749 151 5 181 13 183 11 194 3
793 151 1 182 11 194 1 184 7 195 4
511 151 8 183 7 185 3 197 2 195 3
592 151 4 184 3 197 1 186 5 198 4
731 151 8 153 10 185 5 198 1 201 4
995 40 4 151 44 181 28 218 1 219 14 223 1 188 5 222 8 190 34 217 106
876 174 1 187 5 223 6 189 6 190 16
1026 174 1 179 4 188 6 223 5
955 174 2 181 19 187 34 188 16 192 27
685 174 1 175 1 176 2 181 5 193 4 192 5
1099 174 4 181 24 190 27 191 5
861 176 10 181 1 191 4 196 1 194 6 197 3
717 181 3 182 3 183 1 193 6 197 2 195 3
889 183 4 184 3 194 3 197 6
868 145 4 156 5 176 1 177 11 193 1 197 9 198 10
844 184 2 185 1 193 3 194 2 195 6 196 9 198 2
1023 145 4 185 4 186 1 196 10 197 2 201 5
433 38 63 39 77 168 62 172 35
328 50 10 148 14 150 16 180 9 202 31
804 145 7 153 5 186 4 198 5
347 50 42 180 1 200 31 203 36 204 2 205 49
1446 178 8 180 10 202 36 213 1 204 26 221 9 215 7
1131 202 2 203 26 213 25 214 10 205 29
296 50 67 51 112 202 49 204 29 228 2 214 10 253 20
1340 207 3 208 6 209 7 210 2 211 11 212 2
1264 206 3 216 7 208 6 209 5 217 8
813 206 6 207 6 210 5 217 1
1110 206 7 207 5 216 4 220 1 221 20 215 4 211 11
1012 206 2 208 5 217 20 212 24
1230 206 11 209 11 215 7 250 9 212 1 251 15
1160 43 7 206 2 210 24 211 1 217 76 234 11 251 30 239 25 236 31 260 17
1386 203 1 204 25 214 14 215 24
1140 204 10 205 10 213 14 227 9 228 35 247 5 249 20 215 9
1332 203 7 209 4 211 7 213 24 214 9 249 3 221 18 250 3
1048 207 7 209 4 218 7 219 7 220 9 217 6
950 40 8 43 24 187 106 207 8 208 1 210 20 212 76 216 6 219 6
1107 187 1 216 7 219 4 220 1 222 6
956 187 14 216 7 217 6 218 4
1277 178 20 179 1 209 1 216 9 218 1 222 4 221 18
1103 178 2 203 9 209 20 215 18 220 18
861 179 3 187 8 218 6 220 4 223 12
1005 179 4 187 1 188 6 189 5 222 12
561 225 25 226 34 227 2 228 15 229 20 230 15
519 224 25 228 19 241 6 229 32 242 17 243 12
749 224 34 244 1 252 4 227 24 245 11 230 13
1658 214 9 224 2 226 24 246 8 252 3 228 5 247 19 248 8
47 205 2 214 35 224 15 225 19 227 5 253 20 243 35
342 224 20 225 32 259 27 241 22 230 2
1064 224 15 226 13 229 2 244 12 232 22 235 24 259 30
529 232 1 233 15 234 27 235 5 236 41
631 230 22 231 1 237 1 244 7 233 11 238 5 235 16 240 3
775 231 15 232 11 234 3 240 7
849 212 11 231 27 233 3 237 28 239 17 236 24 240 3
919 45 4 230 24 231 5 232 16 259 47 263 65 264 1 236 9
366 212 31 231 41 234 24 235 9 264 80 260 7
626 232 1 234 28 238 11 239 23 240 6
737 232 5 237 11 244 8 239 9
574 212 25 234 17 237 23 238 9 244 7 246 14 245 5 248 10 251 3
818 232 3 233 7 234 3 237 6
449 31 29 225 6 229 22 256 31 258 16 259 52 242 18
104 52 52 225 17 241 18 258 74 243 30
186 52 31 225 12 228 35 242 30 253 21
1029 226 1 230 12 232 7 238 8 239 7 245 15
923 226 11 239 5 244 15 252 9 248 8
911 227 8 239 14 247 11 248 15 249 1 250 19 251 8
802 214 5 227 19 246 11 249 21
1069 227 8 239 10 245 8 246 15 252 9
810 214 20 215 3 246 1 247 21 250 21
2177 211 9 215 3 246 19 249 21 251 25
1480 211 15 212 30 239 3 246 8 250 25
105 226 4 227 3 245 9 248 9
505 51 32 52 4 205 20 228 20 243 21
280 40 30 42 147 255 113
350 40 110 254 113
159 30 29 31 4 241 31 257 47 258 59
109 30 51 31 48 256 47
271 30 160 52 148 241 16 242 74 256 59
199 31 45 229 27 230 30 235 47 241 52
266 43 77 46 19 212 17 236 7 261 18 264 56
745 44 8 46 1 260 18 262 16 264 2
982 44 5 45 2 261 16 263 11 264 22
492 45 61 235 65 262 11 264 8
771 235 1 236 80 260 56 261 2 262 22 263 8
