84 214 11
154 2 58 3 22 4 22 5 9 6 17 7 72
255 1 58 4 29 8 27 7 30 9 193 10 96 11 4
859 1 22 18 15 4 19 6 9
1388 1 22 2 29 3 19 18 11 8 34
138 1 9 6 25 34 16 31 9 7 34
344 1 17 3 9 5 25 18 18 19 1 31 26
221 1 72 2 30 5 34 34 25 41 72
772 2 27 4 34 18 26 19 14 11 64
93 2 193
189 2 96 12 8 21 27 17 52 11 48
119 2 4 8 64 10 48 21 41 19 1
193 10 8 13 52 14 27 15 40 16 19 17 60
31 12 52 14 29 15 57 27 70 28 5 29 39
77 12 27 13 29 20 30 21 4 19 25 30 2 28 52 16 5
72 12 40 13 57 23 42 32 15 29 36 24 6 26 44
157 12 19 14 5 20 16 17 13 22 1
58 10 52 12 60 16 13 21 16 22 22
1438 3 15 4 11 6 18 8 26 19 11
41 6 1 8 14 11 1 14 25 18 11 21 36 30 43 31 54
722 14 30 16 16 21 10 22 25
156 10 27 11 41 14 4 17 16 19 36 20 10 22 22
73 16 1 17 22 20 25 21 22
202 15 42 24 125 25 80 26 44
76 15 6 23 125 32 84 33 13 39 18 42 99
31 23 80 83 85 26 28
77 15 44 23 44 25 28 82 18 83 52
55 13 70 28 44 29 13 35 16 36 72
11 13 5 14 52 27 44 30 60 36 6 38 20
202 13 39 15 36 27 13 32 60 33 45 35 37
187 14 2 19 43 28 60 31 17 37 20 38 48
473 5 9 6 26 19 54 30 17 34 53 37 15
423 15 15 24 84 29 60 33 42
445 24 13 29 45 32 42 35 24 39 87
62 5 16 7 25 31 53 40 65 37 12 41 1
74 27 16 29 37 33 24 39 28 36 51 43 8 44 75
78 27 72 28 6 35 51 38 51 44 44
75 30 20 31 15 34 12 40 69 41 28 38 44 51 22 52 103 53 8
107 28 20 30 48 36 51 37 44 52 55 44 10 57 19
325 24 18 33 87 35 28 42 3 49 48 50 56 43 17
148 34 65 37 69 41 89
129 7 72 34 1 37 28 40 89 51 124
76 24 99 39 3 46 99 49 70 48 21
172 35 8 39 17 54 31 50 16 55 42 44 58 65 68
71 35 75 36 44 38 10 43 58 57 93 65 58
150 46 87 47 65 48 15
94 42 99 45 87 48 54
240 45 65 59 59 48 23 63 50
84 42 21 45 15 46 54 47 23 49 50 58 13 59 45 56 50
83 39 48 42 70 48 50 54 50 50 27 56 9 55 3
514 39 56 43 16 49 27 54 45
187 37 22 41 124 53 62
97 37 103 38 55 53 43 57 119 64 15
65 37 8 51 62 52 43 64 111 69 16
1260 43 31 49 50 50 45 55 55
350 43 42 49 3 54 55 56 63 61 25 65 35
449 48 50 49 9 55 63 58 61 61 74
62 38 19 44 93 52 119 64 43 65 33 70 99 68 70
742 48 13 56 61 59 52 60 19 61 3 62 56 63 29
365 47 59 48 45 58 52 63 52
39 58 19 62 65 63 66 66 42 67 30
130 55 25 56 74 58 3 62 72 65 38 67 17 68 73
98 58 56 60 65 61 72 67 112
155 47 50 58 29 59 52 60 66
459 52 15 53 111 57 43 70 93 69 25
377 43 68 44 58 55 35 57 33 61 38 68 125
151 60 42 78 43 79 52 67 80
257 60 30 61 17 62 112 66 80 79 16 68 37 80 7 74 91
365 57 70 61 73 65 125 67 37 71 149 70 14 74 99
189 53 16 64 25 70 31 81 48
149 57 99 64 93 68 14 69 31 71 86 72 27 75 58 81 29
206 68 149 70 86 72 113 73 25 74 58
263 70 27 71 113 75 26 76 16 73 108 77 124
115 71 25 72 108 77 67 84 188
741 67 91 68 99 71 58 80 125
145 70 58 72 26 76 68 81 50
1068 72 16 75 68 77 160
1350 72 124 73 67 76 160
1005 66 43 79 35 80 79
1290 66 52 67 16 78 35 80 54
714 67 7 74 125 78 79 79 54
153 69 48 70 29 75 50
20 26 18 83 6
38 25 85 26 52 82 6
146 73 188
