112 299 11
144 2 17 3 47 4 20 5 23 6 41
58 1 17 4 37 14 10 6 54
165 1 47 7 2 9 37 4 28 18 36 20 5 5 45
212 1 20 2 37 3 28 21 20 20 18 22 32 23 20
377 1 23 3 45 7 36 13 73 6 18
124 1 41 2 54 5 18 13 10 14 29
47 3 2 5 36 8 31 9 19 10 32 11 39 12 36 13 7
40 7 31 15 8 10 33 12 30
101 3 37 7 19 10 35 17 48 18 55
100 7 32 8 33 9 35 15 46 17 37 16 3
261 7 39 29 77 12 27 13 10
18 7 36 8 30 11 27
234 5 73 6 10 7 7 11 10 29 69 14 8
42 2 10 6 29 13 8 29 56
32 8 8 10 46 16 20
103 10 3 15 20 17 51 25 40 19 20 26 9
43 9 48 10 37 16 51 18 1 19 25
147 3 36 9 55 17 1 20 47 19 43
67 16 20 17 25 18 43 20 39 28 78 26 9 24 5
115 3 5 4 18 18 47 19 39 21 37 22 20 24 40
142 4 20 20 37 22 37
768 4 32 20 20 21 37 23 59 24 16
73 4 20 22 59 47 6 70 56 49 29 24 46
192 19 5 20 40 22 16 23 46 47 52 28 11 44 42 46 26
483 16 40 27 58 26 29
104 16 9 19 9 25 29 51 47 28 71 27 42 34 20 45 9
48 25 58 26 42 33 36 34 32
354 19 78 24 11 26 71 44 36 45 31
240 11 77 13 69 14 56
67 31 8 32 43 33 21 34 58
79 30 8 35 32 32 3 37 32 39 36
826 30 43 31 3 37 47 52 40 54 36 34 5 55 36
209 27 36 30 21 34 31
27 26 20 27 32 30 58 32 5 33 31 51 32 52 29
359 31 32 36 29 37 23 38 2 39 9 40 12
1082 35 29 37 35 38 45
666 31 32 32 47 35 23 36 35 38 4 55 4 56 50
275 35 2 36 45 37 4 56 165 40 190
105 31 36 35 9
237 35 12 38 190 56 125 84 276
125 42 40 43 25 44 33 45 44 46 35
328 41 40 51 15 43 8 53 21 45 27 58 41 59 54
571 41 25 42 8 47 3 48 83 46 19 59 81 67 28
61 24 42 28 36 41 33 45 32 46 39
269 26 9 28 31 41 44 42 27 44 32 51 57
118 24 26 41 35 43 19 44 39 47 61
227 23 6 24 52 43 3 46 61 48 59 49 32 50 41
461 43 83 47 59 67 40
402 23 29 47 32 70 9 71 43 50 62
225 47 41 49 62 71 25
367 26 47 34 32 42 15 45 57 52 55 53 37
227 32 40 34 29 51 55 54 4 53 23 57 44
685 42 21 51 37 52 23 60 14 57 4 62 12 58 40
584 32 36 52 4 57 34 55 18 64 35
355 32 36 37 4 54 18 56 160 66 54 64 71 85 17
896 37 50 38 165 40 125 55 160 85 2 84 219
157 52 44 53 4 54 34 60 21 61 12 64 1
304 42 41 53 40 62 2 68 14 69 15 105 27 59 8
284 42 54 43 81 58 8 105 6 107 51 67 8 108 22
732 53 14 57 21 61 36 62 41 63 3
847 57 12 60 36 65 32 63 3 64 10
1302 53 12 58 2 60 41 68 24 63 16
473 60 3 61 3 62 16 65 4 68 11 66 25 102 1 69 2 103 6 104 6 88 5
235 54 35 55 71 57 1 61 10 65 43 66 49
706 61 32 63 4 64 43 66 24
606 55 54 63 25 64 49 65 24 86 3 87 17 88 1 89 71 85 73
164 43 28 48 40 59 8 108 47 76 18 77 18
459 58 14 62 24 63 11 69 20
765 58 15 63 2 68 20 101 19 103 9 105 2
48 23 56 49 9 71 59
134 49 43 50 25 70 59
72 73 18 74 47 75 12 76 24 77 55
82 72 18 74 48
48 72 47 73 48 90 4 79 70 77 2
389 72 12 76 49
136 67 18 72 24 75 49 77 46
203 67 18 72 55 74 2 76 46 79 3 108 65 82 45
214 79 78 80 16 81 31 82 1 83 50 84 55
136 74 70 77 3 78 78 90 35 91 4 92 29 94 2 80 1 82 4
734 78 16 79 1 94 49 95 27 93 9 84 213 96 200
659 78 31 111 29 82 3 83 22 110 27 84 23
1168 77 45 78 1 79 4 81 3 108 4 111 29 109 44 83 33
599 78 50 81 22 82 33
253 40 276 56 219 78 55 80 213 81 23 85 105 110 23 96 86
183 55 17 56 2 66 73 84 105 89 55 109 22 110 63
901 66 3 106 9 105 36 87 19 107 1 89 30
594 66 17 86 19 106 3 99 3 88 18
430 63 5 66 1 87 18 97 1 98 2 102 13 99 1 100 1
227 66 71 85 55 86 30 107 16 108 2 109 43
445 74 4 79 35 91 36 92 30 93 6
558 79 4 90 36 92 52 94 80 93 14
550 79 29 90 30 91 52
671 80 9 90 6 91 14 94 2 95 28 112 20 96 70
367 79 2 80 49 91 80 93 2 95 38
811 80 27 93 28 94 38
564 80 200 84 86 93 70 112 34
708 88 1 98 3 99 1 100 6
662 88 2 97 3 99 2
844 87 3 88 1 97 1 98 2 106 9 100 5
1073 88 1 97 6 99 5 101 16 102 1 106 3 105 3
453 69 19 100 16 102 2 103 2 104 2 105 8
663 63 1 88 13 100 1 101 2 104 13
545 63 6 69 9 101 2 104 10
217 63 6 101 2 102 13 103 10
1134 58 27 59 6 69 2 86 36 100 3 101 8 106 9 107 59
653 86 9 87 3 99 9 100 3 105 9
1251 59 51 86 1 89 16 105 59 108 73
531 59 22 67 47 77 65 82 4 89 2 107 73 109 39
951 82 44 85 22 89 43 108 39 111 2 110 17
286 81 27 84 23 85 63 109 17 111 31
1067 81 29 82 29 109 2 110 31
905 93 20 96 34
