146 395 11
428 2 3 3 13 4 24 5 19 6 14
190 1 3 3 15 4 15 7 22 8 21 9 24
639 1 13 2 15 7 14 6 18
641 1 24 2 15 10 13 5 1 12 16 9 20
562 1 19 4 1 10 18 14 30 6 8 13 15 17 5
569 1 14 3 18 5 8 14 11 7 22 16 18
822 2 22 3 14 6 22 16 143 20 98 8 85 21 7
236 2 21 7 85 21 46 39 68 9 25
324 2 24 4 20 8 25 39 6
626 4 13 5 18 11 9 12 14 13 8
488 10 9 12 8 13 8
1028 4 16 10 14 11 8 13 15 22 8
647 5 15 10 8 11 8 12 15 22 33 17 13
240 5 30 6 11 15 17 16 16 17 20
539 14 17 16 16 18 14 17 25 19 24
390 6 18 7 143 14 16 15 16 23 137 19 15
212 5 5 13 13 14 20 15 25 18 11 22 22 27 1 25 9 28 14
204 15 14 17 11 19 19 25 36 26 18
459 15 24 16 15 18 19 23 32 24 3 26 4
822 7 98 29 31 30 63 31 37 21 5
542 7 7 8 46 20 5 31 117 39 69
250 12 8 13 33 17 22 27 46
794 16 137 19 32 24 144
628 19 3 23 144 26 26 32 58 33 30
532 17 9 18 36 34 27 26 16 28 6 36 11
698 18 18 19 4 24 26 25 16 36 28 32 32 114 5
498 17 1 22 46 28 35 37 37
273 17 14 25 6 27 35 34 27 35 3 37 2 115 22
798 20 31 30 32 38 23
487 20 63 29 32 38 21 31 73
684 20 37 21 117 30 73 38 12
1064 24 58 26 32 119 4 33 77 114 8
574 24 30 32 77 120 52 119 7 121 15
583 25 27 28 27 35 16 36 19
1016 28 3 34 16 36 8 115 22
759 25 11 26 28 34 19 35 8 114 31 115 5 118 32
565 27 37 28 2 116 26 115 32 78 32 79 1
204 29 23 30 21 31 12
570 8 68 9 6 21 69
192 41 19 42 19 43 6 44 13 45 8
1060 40 19 46 10 47 11 44 4 48 23 45 14
455 40 19 43 8 59 20 60 1 45 19 61 10
745 40 6 42 8 81 1 44 15 82 10 60 22
340 40 13 41 4 43 15 81 20 47 9
491 40 8 41 14 42 19 114 11 118 2 125 6 123 31 48 17 61 6
1181 41 10 49 15 47 12 48 3 53 1
959 41 11 44 9 46 12 49 1 52 16 81 9 84 11
1294 41 23 45 17 46 3 125 6 128 28 53 10
1043 46 15 47 1 50 6 51 1 52 11 53 3
593 49 6 54 5 51 11 55 4 52 4 56 4 57 1
545 49 1 50 11 66 3 57 5 53 11
747 47 16 49 11 50 4 56 16 83 8 84 6
689 46 1 48 10 49 3 51 11 66 2 127 3 131 4 128 3
863 50 5 55 4 56 6 58 1
351 50 4 54 4 58 4 67 7 57 5
684 50 4 52 16 54 6 58 19 83 1
273 50 1 51 5 55 5 66 1 67 5 133 2 132 5
871 54 1 55 4 56 19 75 6 76 11 83 12 67 2
298 42 20 68 26 69 11 60 16 61 13
115 42 1 43 22 59 16 69 21 82 2 86 7
432 42 10 45 6 59 13 68 6 123 18 72 29
127 63 35 64 8 65 38
413 62 35 75 17 76 7 64 19 77 1 78 4 79 34 65 21 80 8
417 62 8 63 19 77 41 95 25 96 10
702 62 38 63 21 116 18 117 34 78 10
607 51 3 53 2 57 1 129 2 130 1 131 1 132 1
690 55 7 57 5 58 2 75 10 80 10 133 1
734 59 26 61 6 69 1 70 21 71 27 72 7 73 1 74 11
208 59 11 60 21 68 1 71 13 85 17 86 18
399 68 21 71 2 88 11 73 24
122 68 27 69 13 70 2 91 2 85 19 88 22
656 61 29 68 7 89 6 90 29 123 10 74 5
1010 68 1 70 24 89 8 74 16
590 68 11 72 5 73 16 89 22
1005 58 6 63 17 67 10 76 27 80 16
762 58 11 63 7 75 27 83 23 77 27 87 3
974 63 1 64 41 76 27 87 6 98 20 96 12
308 37 32 63 4 65 10 116 27 79 33
313 37 1 63 34 78 33 115 1 124 41 126 12 80 2
425 63 8 67 10 75 16 79 2 134 17 126 4 133 4
356 43 1 44 20 47 9 82 20 84 16
801 43 10 60 2 81 20 84 7 94 12 86 18
708 52 8 56 1 58 12 76 23 84 6 92 15 87 20 93 3
609 47 11 52 6 81 16 82 7 83 6 94 4 97 23 93 13
889 69 17 71 19 91 29 86 12 102 10
286 60 7 69 18 82 18 85 12 94 7 104 28 102 5
776 76 3 77 6 83 20 99 8 92 4 101 1 107 11 98 2
555 70 11 71 22 91 20 103 4
697 72 6 73 8 74 22 90 29
986 72 29 89 29 122 49 123 2
236 71 2 85 29 88 20 102 17 103 27
748 83 15 87 4 99 1 100 8 101 1 93 13
741 83 3 84 13 92 13 106 24 97 21 101 1 108 6
547 82 12 84 4 86 7 97 16 104 18 105 19
298 64 25 96 1
585 64 10 77 12 95 1 98 11 109 21
396 84 23 93 21 94 16 105 16 108 5
467 77 20 87 2 96 11 107 21 109 20
517 87 8 92 1 100 2 101 8
732 92 8 99 2 101 7
628 87 1 92 1 93 1 99 8 100 7 106 11 107 15
152 85 10 86 5 91 17 104 5 110 13 103 6 111 28 144 26 145 9
819 88 4 91 27 102 6 144 20
392 86 28 94 18 102 5 110 29 105 1
310 94 19 97 16 104 1 110 11 108 3 112 33
476 93 24 101 11 107 17 108 22
549 87 11 98 21 101 15 106 17 108 7 109 20
314 93 6 97 5 105 3 106 22 107 7 109 10 141 10 112 21 142 27 143 16
427 96 21 98 20 107 20 108 10 143 15
342 102 13 104 29 105 11 111 24 112 6 113 4
229 102 28 110 24 113 20 145 30
166 105 33 108 21 110 6 141 27 113 7
201 110 4 111 20 112 7 141 26 145 12 146 25 138 1
660 26 5 32 8 36 31 45 11 119 39 118 23 123 19
748 28 22 35 22 36 5 37 32 79 1 118 25 124 1
501 37 26 65 18 78 27 117 23
322 65 34 116 23
1041 36 32 45 2 114 23 115 25 125 52 124 10
292 32 4 33 7 114 39 120 25 121 10 122 2 123 17
148 33 52 119 25 121 53
358 33 15 119 10 120 53 122 63
485 90 49 119 2 121 63 123 11
462 45 31 61 18 72 10 90 2 114 19 119 17 122 11
722 79 41 115 1 118 10 125 28 126 18
1181 45 6 48 6 118 52 124 28 127 5 128 22 126 2
954 79 12 80 4 124 18 125 2 127 14 134 20
1012 53 3 125 5 126 14 130 1 134 1 131 7 128 17 133 1
483 48 28 53 3 125 22 127 17
437 66 2 130 1 133 1 132 2
943 66 1 127 1 129 1 131 5 133 6
678 53 4 66 1 127 7 130 5
473 57 5 66 1 129 2 133 4
567 57 2 67 1 80 4 127 1 129 1 130 6 132 4 134 7
638 80 17 126 20 127 1 133 7
143 136 50 137 27 138 27 139 67
115 135 50 137 40 140 37
398 135 27 136 40 145 5 138 17 140 20
92 113 1 135 27 137 17 145 23 146 30 139 1
237 135 67 138 1 146 36 142 31
463 136 37 137 20 144 21 145 36
313 108 10 112 27 113 26 146 22 142 16
250 108 27 139 31 141 16 146 2 143 46
340 108 16 109 15 142 46
424 102 26 103 20 140 21 145 15
365 102 9 111 30 113 12 137 5 138 23 140 36 144 15
177 113 25 138 30 139 36 141 22 142 2
