248 715 11
174 2 33 3 21 4 12 5 4 6 18 7 6 8 1 9 7
424 1 33 8 27 9 12 31 22
533 1 21 12 25 5 40 29 21 7 1 15 32
490 1 12 41 11 6 13 38 8 9 2
330 1 4 3 40 29 1 6 29 43 18 42 29 44 3
652 1 18 4 13 5 29 41 11 42 1
461 1 6 3 1 61 39 63 21 15 37 8 57
391 1 1 2 27 7 57 61 1 64 46 31 13
807 1 7 2 12 4 2 33 8 34 9 38 45 37 3 31 45
353 11 16 12 32 13 9 14 6 15 15 16 34
376 10 16 12 9 27 50 29 34 30 23 16 27
312 3 25 10 32 11 9 29 23 15 22
361 10 9 70 24 63 32 14 25 15 8
139 10 6 13 25 70 27 28 42 16 52
335 3 32 7 37 10 15 12 22 13 8 63 31
224 10 34 11 27 14 52 18 25 27 25 28 1
307 18 14 19 35 20 19 21 22 22 17 23 11 24 8 25 6 26 8
86 16 25 17 14 21 57 27 22 25 53 28 27
59 17 35 20 23 26 25
57 17 19 19 23 23 39 26 22 32 66
51 17 22 18 57 22 19 27 5 40 42
79 17 17 21 19 27 1 23 88 40 71
37 17 11 20 39 22 88 32 11
119 17 8 52 19 55 26 73 25 25 47 26 40
151 17 6 18 53 24 47 52 20 54 27 28 28
145 17 8 19 25 20 22 24 40 73 41 32 20
238 11 50 16 25 18 22 21 5 22 1 40 73 30 31
254 14 42 16 1 18 27 25 28 69 26 54 36 70 5 72 10
472 3 21 5 1 11 34 12 23 43 37 30 18
142 11 23 27 31 29 18 43 31 44 22
444 2 22 8 13 9 45 64 28 37 37
171 20 66 23 11 26 20 73 32 78 41
98 9 8 34 47 35 69 36 45 37 48
219 9 9 33 47 38 20 39 130 35 125
321 33 69 34 125 46 112 36 14 77 55
390 33 45 35 14 45 42 46 45 47 13 37 39
283 9 3 31 37 33 48 36 39 62 4 64 18 47 41
181 4 8 9 45 34 20 41 23 39 32
479 34 130 38 32 41 4 42 50 44 75
118 21 42 22 71 27 73
1007 4 11 6 11 38 23 39 4 42 19
219 5 29 6 1 39 50 41 19 44 45
233 5 18 29 37 30 31 44 41
338 5 3 30 22 39 75 42 45 43 41
310 36 42 46 26 47 9 48 4 49 7 50 30 51 30
200 35 112 36 45 45 26 76 27 77 87 51 67
250 36 13 37 41 45 9 62 49 50 48
1000 45 4 92 55 49 26 51 39 110 53 93 8
164 45 7 48 26 109 40 50 61 110 24
199 45 30 47 48 49 61 62 10 109 6 66 6
478 45 30 46 67 48 39 92 4 76 51
142 24 19 25 20 53 1 54 17 55 48 56 50
292 52 1 57 8 55 50 58 38 59 24 56 7 60 22
247 25 27 28 36 52 17 56 20 72 43
213 24 26 52 48 53 50 57 9 73 20
158 52 50 53 7 54 20 58 19 107 5 104 44 72 18
855 53 8 55 9 73 49 60 46 74 1 75 49
421 53 38 56 19 99 6 59 5 104 33 105 9 102 53 106 12
230 53 24 58 5 98 14 99 11 60 19 100 19
293 53 22 57 46 59 19 100 1 74 24
268 7 39 8 1 62 14 63 27 64 15 65 27 66 12 67 39 68 13
512 37 4 47 49 50 10 61 14 64 59 66 49
451 7 21 13 32 15 31 61 27 70 17 68 19
62 8 46 31 28 37 18 61 15 62 59
552 61 27 66 58 67 37 95 6 96 47 97 19
386 50 6 61 12 62 49 65 58 109 39 97 27
173 61 39 65 37 68 43 96 17 83 34
340 61 13 63 19 67 43 69 39 70 7 71 14 83 22
429 28 26 68 39 70 43 71 26 72 24
260 13 24 14 27 28 5 63 17 68 7 69 43
396 68 14 69 26 108 26 80 26 72 11 83 22
209 28 10 54 43 56 18 69 24 71 11 107 4 108 37
376 24 25 26 41 32 32 55 20 57 49 75 14 78 23
418 57 1 60 24 98 49 100 13 75 39
62 57 49 73 14 74 39 98 25 101 262 177 29 78 379
694 46 27 51 51 91 26 92 42 86 45 77 37
685 35 55 46 87 76 37 85 23 86 36 87 63 88 148
35 32 41 73 23 75 379 177 280 229 158 228 333
801 80 5 81 18 82 33 83 9 84 37
465 71 26 79 5 108 15 83 11 84 32
382 79 18 107 18 141 12 106 25 82 17 84 4 144 40
533 79 33 81 17 141 34 142 7 83 17
195 67 34 68 22 71 22 79 9 80 11 82 17 96 1 142 43
686 79 37 80 32 81 4 107 16 108 6
1289 77 23 86 23 87 56 88 77 89 19 90 3
886 76 45 77 36 85 23 91 5 87 16 90 42
606 77 63 85 56 86 16
738 77 148 85 77 89 40 133 785
421 85 19 88 40 128 20 129 2 90 20 133 33
519 85 3 86 42 89 20 91 41 128 8 94 30
602 76 26 86 5 90 41 92 19 93 42 94 3
318 48 55 51 4 76 42 91 19 93 29
879 48 8 91 42 92 29 112 10 110 12 94 13 117 61
958 90 30 91 3 93 13 112 12 128 23 115 25
457 65 6 138 35 96 35 97 30 139 31 140 20
849 65 47 67 17 83 1 95 35 142 54 139 28 143 19
66 65 19 66 27 95 30 109 15 138 14 134 7 111 27
287 59 14 74 49 75 25 99 14 100 9 101 75
107 58 6 59 11 98 14 102 62 103 10 101 62
960 59 19 60 1 74 13 98 9
116 75 262 98 75 99 62 103 12 175 259 156 35 177 23
156 58 53 99 62 105 4 103 50
95 99 10 101 12 102 50 105 46 136 5 154 9 155 23 156 46
92 56 44 58 33 107 45 106 36
78 58 9 102 4 103 46 106 51 136 32 137 10
183 58 12 81 25 104 36 105 51 107 19 144 12 137 14
112 56 5 72 4 81 18 84 16 104 45 106 19 108 37
258 71 26 72 37 80 15 84 6 107 37
268 49 40 50 6 66 39 97 15 110 34 111 33
436 48 53 49 24 93 12 109 34 119 22 120 32 111 13 117 5
201 97 27 109 33 110 13 120 17 134 30
754 93 10 94 12 113 8 114 2 115 18 116 22 117 2 118 9
921 112 8 123 4 114 4 118 2
1047 112 2 113 4 122 4 123 1 115 6 124 1 131 6
1273 94 25 112 18 114 6 128 9 131 7
935 112 22 146 6 117 39 118 12 150 8 127 1 157 15 151 25
1252 93 61 110 5 112 2 116 39 119 45 157 5 173 8 121 23
1006 112 9 113 2 116 12 123 2 127 10
706 110 22 117 45 120 40 121 49
547 110 32 111 17 119 40 134 17 121 15 135 57
650 117 23 119 49 120 15 173 12 135 15 200 54 196 2
1481 114 4 123 1 124 2 125 1 126 1
792 113 4 114 1 118 2 122 1 125 3 127 1
804 114 1 122 2 174 1 131 4 126 3
729 122 1 123 3 126 4 150 1 127 1
956 122 1 124 3 125 4 149 3 174 1 150 1
549 116 1 118 10 123 1 125 1 150 10
1583 89 20 90 8 94 23 115 9 129 25 130 5 131 2
797 89 2 128 25 132 19 130 2 133 26
1089 128 5 129 2 132 3 167 2 171 5 164 9 172 10 131 3
733 114 6 115 7 124 4 128 2 130 3 172 7 174 4
538 129 19 130 3 160 4 161 8 164 18 133 576 152 36 153 427
949 88 785 89 33 129 26 132 576
132 97 7 111 30 120 17 138 28 135 13
125 120 57 121 15 134 13 138 24 140 6 170 24 196 43
187 103 5 105 32 154 16 137 30 158 12 159 14
312 105 10 106 14 136 30 168 34 144 11 159 12
106 95 35 97 14 134 28 135 24 140 17
221 95 31 96 28 143 5 140 28 163 49
237 95 20 135 6 138 17 139 28 170 48 163 9
552 81 12 82 34 142 27 143 29 144 24 145 14
276 82 7 83 43 96 54 141 27 143 33
860 96 19 139 5 141 29 142 33 165 44 166 4 145 18 163 13
643 81 40 106 12 137 11 141 24 168 41 145 30
714 141 14 143 18 144 30 168 1 180 2 165 52 169 64
617 116 6 147 11 148 2 149 3 150 10 151 3 152 2 153 11
1100 146 11 167 6 161 2 148 1 162 6 152 1
1098 146 2 147 1 167 1 172 1 149 3 174 3
885 126 3 146 3 148 3 174 2 150 6
931 116 8 125 1 126 1 127 10 146 10 149 6
916 116 25 146 3 157 4 201 48 153 34
1061 132 36 146 2 147 1 160 24 162 6 153 66
718 132 427 146 11 151 34 152 66 201 319
339 103 9 136 16 158 30 155 32
324 103 23 154 32 193 26 158 4 156 54
352 101 35 103 46 155 54 175 106 193 12 176 1
837 116 15 117 5 151 4 198 251 173 50 201 293 199 8
65 136 12 154 30 155 4 191 2 193 24 159 12
340 136 14 137 12 158 12 168 29 183 2 191 45 169 9
1178 132 4 152 24 161 18 162 5
953 132 8 147 2 160 18 167 1 171 4 164 13 162 5
1057 147 6 152 6 160 5 161 5
478 139 49 140 9 143 13 170 19 192 17 166 47
979 130 9 132 18 161 13 171 5
417 143 44 145 52 180 6 184 13 166 56
109 143 4 163 47 165 56 184 31 192 29
723 130 2 147 6 148 1 161 1 171 3 172 5
358 137 34 144 41 145 1 159 29 169 33
228 145 64 159 9 168 33 180 30 183 51
71 135 24 140 48 163 19 192 34 195 41 196 19 188 1
711 130 5 161 4 164 5 167 3
818 130 10 131 7 148 1 167 5 174 4
849 117 8 121 12 157 50 198 47 200 4
665 124 1 126 1 131 4 148 3 149 2 172 4
246 101 259 156 106 176 15 177 222 178 19 179 100
171 156 1 175 15 189 14 193 51 178 26 194 51
356 75 29 78 280 101 23 175 222 225 14 227 22 179 108 228 614
329 175 19 176 26 225 61 226 14 179 53 194 37
119 175 100 177 108 178 53 225 5
564 145 2 165 6 169 30 181 51 182 45 183 4 184 23 185 15 186 15
691 180 51 184 51 185 18 187 47 188 15
204 180 45 183 50 189 12 190 5 186 50
164 159 2 169 51 180 4 182 50 189 50 191 1
169 165 13 166 31 180 23 181 51 192 34 188 21
1366 180 15 181 18 214 6 222 45 220 18 187 41 186 42
185 180 15 182 50 185 42 209 5 220 23 190 44
319 181 47 185 41 213 44 214 45 197 13 188 48
478 170 1 181 15 184 21 187 48 192 54 195 74 197 53
232 176 14 182 12 183 50 191 43 193 1 190 17 194 29
203 182 5 186 44 189 17 209 18 226 51 194 40
170 158 2 159 45 183 1 189 43 193 36
74 163 17 166 29 170 34 184 34 188 54
110 155 26 156 12 158 24 176 51 189 1 191 36
806 176 51 178 37 189 29 190 40 226 5
102 170 41 188 74 197 71 196 136
854 121 2 135 43 170 19 195 136 200 124 197 1
1286 187 13 188 53 195 71 196 1 213 41 217 16 199 136 200 56
874 157 251 173 47 199 114 200 196
1208 157 8 197 136 198 114 201 71 217 5 218 10 200 44 219 186
930 121 54 173 4 196 124 197 56 198 196 199 44
725 151 48 153 319 157 293 199 71
694 203 50 204 16 205 48 206 5
299 202 50 207 51 204 11 209 7 225 43 226 18 205 13 210 4
166 202 16 203 11 225 16 227 44 228 10 206 28
349 202 48 203 13 236 7 237 11 238 10 210 15 206 40
255 202 5 204 28 205 40 237 61 235 1 228 18
1210 203 51 208 27 209 31 210 9 211 52
292 207 27 209 9 220 36 211 4 221 32
327 186 5 190 18 203 7 207 31 208 9 220 37 226 52
1823 203 4 205 15 207 9 238 107 239 37 241 69 211 32
458 207 52 208 4 210 32 241 37 221 8
795 213 52 214 31 215 44 216 20
1051 187 44 197 41 212 52 214 1 217 2 218 2 215 34 219 66
662 185 6 187 45 212 31 213 1 222 41 223 6 224 7 216 37
701 212 44 213 34 219 86 216 112
806 212 20 214 37 215 112 239 1 223 120
1634 197 16 199 5 213 2 218 11
1183 199 10 213 2 217 11 219 19
704 199 186 213 66 215 86 218 19
1290 185 18 186 23 208 36 209 37 222 8 221 8 224 15
1078 208 32 211 8 220 8 241 8 247 28 224 19
538 185 45 214 41 220 8 224 47
891 214 6 216 120 239 104 240 19 246 3 248 3 224 18
808 214 7 220 15 221 19 222 47 223 18 247 1 248 23
178 177 14 178 61 179 5 203 43 204 16 227 26 226 24
974 178 14 190 51 194 5 203 18 209 52 225 24
1156 177 22 204 44 225 26 228 36
902 78 333 177 614 204 10 206 18 227 36 229 716 235 230
981 78 158 228 716 230 14 231 86 235 152
1061 229 14 231 11 232 35 233 20 234 21
928 229 86 230 11 232 38 233 8 235 92
954 230 35 231 38 233 24
673 230 20 231 8 232 24 236 28 234 30 237 10 235 15
699 230 21 233 30 236 25 238 58
770 206 1 228 230 229 152 231 92 233 15 237 46
788 205 7 233 28 234 25 237 47 238 37
756 205 11 206 61 233 10 235 46 236 47
510 205 10 210 107 234 58 236 37
792 210 37 216 1 223 104 240 6 241 43 242 4 243 19 244 10 245 2
480 223 19 239 6 242 2 246 10 244 3
452 210 69 211 37 221 8 239 43 245 14 247 27
918 239 4 240 2 244 3
846 239 19 246 9 244 6 245 30 248 6
870 239 10 240 3 242 3 243 6 246 8
1126 239 2 241 14 243 30 247 33 248 16
964 223 3 240 10 243 9 244 8 248 13
1382 221 28 224 1 241 27 245 33 248 6
1095 223 3 224 23 243 6 245 16 246 13 247 6
