279 758 11
373 2 8 3 15 4 9 5 24 6 16 7 26
197 1 8 3 23 10 22 12 13 7 14 13 17
527 1 15 2 23 4 20 14 10 10 17
1562 1 9 3 20 14 2 6 18 15 15
34 1 24 6 8 16 2 7 11 17 10
571 1 16 4 18 5 8 23 11 15 2 16 23
229 1 26 2 14 5 11 17 30 13 9
342 9 1 10 47 11 24
481 8 1 18 4 21 20 10 19 19 1 20 26
357 2 22 3 17 8 47 9 19 21 1 14 6 12 1 11 6
217 8 24 10 6 40 28 12 31
332 2 13 10 1 11 31 43 1 40 14 41 10 13 28
473 2 17 7 9 12 28 43 35 45 2 17 19
672 3 10 4 2 10 6 21 34 15 12 22 16
188 4 15 6 2 14 12 23 3 22 6
139 5 2 6 23 23 12 19 3 22 15 24 7 26 20 29 25
343 5 10 7 30 13 19 45 34
271 9 4 19 4 20 4
181 9 1 16 3 18 4 21 21 22 2 20 5 24 22
366 9 26 18 4 19 5 24 11 28 17
103 9 20 10 1 14 34 19 21 22 3
530 14 16 15 6 16 15 19 2 21 3 23 9
1407 6 11 15 3 16 12 22 9
176 16 7 19 22 20 11 25 28 26 7 28 5
121 24 28 26 19 27 5 28 25
197 16 20 24 7 25 19 27 19 30 21 29 23 31 1
149 25 5 26 19 28 21 32 32 30 8
399 20 17 24 5 25 25 27 21
377 16 25 26 23 31 32 36 43
304 26 21 27 8 33 19 32 7 31 13
64 26 1 29 32 30 13 33 17 34 13 36 17 103 8
307 27 32 30 7 33 1 35 34
267 30 19 31 17 32 1 34 24 35 6
490 31 13 33 24 35 14 103 7 104 24
148 32 34 33 6 34 14
390 29 43 31 17 103 37 106 11 57 27
219 38 11 39 34 40 16 41 14
132 37 11 39 18 41 19 42 22
327 37 34 38 18
527 11 28 12 14 37 16 41 25
152 12 10 37 14 38 19 40 25 43 11 42 6
154 38 22 41 6 43 32 44 30
110 12 1 13 35 41 11 42 32 44 3 45 18
94 42 30 43 3 45 17
158 13 2 17 34 43 18 44 17
470 47 13 48 1 49 6 50 11 51 12 52 7 53 1
659 46 13 48 24 54 1 55 27 53 5
221 46 1 47 24 50 16 54 16
48 46 6 56 13 51 10 57 17 52 26 58 20
351 46 11 48 16 54 9 51 3 65 20
105 46 12 49 10 50 3 68 16 56 19 65 14 66 2
69 46 7 49 26 57 2 109 14 53 19
580 46 1 47 5 52 19 109 15 62 1 55 24
435 47 1 48 16 50 9 59 21 65 16 66 3 61 16 67 39 55 4
41 47 27 53 24 54 4 59 31 62 15
69 49 13 51 19 68 4 69 20 73 7 58 30
270 36 27 49 17 52 2 106 25 109 15 110 1 58 28
93 49 20 56 30 57 28 110 35
267 54 21 55 31 60 20 61 3 62 6 63 13 64 25
894 59 20 71 22 72 8 61 8 75 20
605 54 16 59 3 60 8 75 3 76 26 77 6 78 23 67 15 79 1
133 53 1 55 15 59 6 105 23 104 7 106 6 109 12 63 17
372 59 13 62 17 104 16 108 1 64 14
594 59 25 63 14 108 27
190 50 20 51 14 54 16 66 26
200 51 2 54 3 65 26 68 9 70 26 67 5 74 7
759 54 39 61 15 66 5 78 8 74 10 83 16 88 6
191 51 16 56 4 66 9 69 21 70 5
97 56 20 68 21 70 10 73 30
132 66 26 68 5 69 10 81 27 73 3 74 3
909 60 22 72 5
623 60 8 71 5 75 13
412 56 7 69 30 70 3 81 9 85 20 91 17
225 66 7 67 10 70 3 81 7 86 12 88 28 102 20
599 60 20 61 3 72 13 76 26 77 6 80 5
846 61 26 75 26 77 15
388 61 6 75 6 76 15 80 1 79 5 82 20
658 61 23 67 8 79 10 83 20
838 61 1 77 5 78 10 82 20 83 13 95 6 96 27 97 3
1109 75 5 77 1 89 22 82 25 90 3
216 70 27 73 9 74 7 84 10 85 9 86 12
365 77 20 79 20 80 25 90 2 97 3
587 67 16 78 20 79 13 95 7 88 22
186 81 10 85 14 86 17 87 6
518 73 20 81 9 84 14 91 23 87 10 101 1
357 74 12 81 12 84 17 87 7 102 14
321 84 6 85 10 86 7 102 5 101 20 191 15
527 67 6 74 28 83 22 95 15 102 11 192 15 200 2
774 80 22 92 17 93 1 90 4 100 13
748 80 3 82 2 89 4 92 11 179 1 182 9 94 4 97 15
554 73 17 85 23 185 10 188 17 186 4 101 2 189 7 190 10
679 89 17 90 11 93 3 94 5
783 89 1 92 3 180 1 94 5 100 1 195 7 199 1
884 90 4 92 5 93 5 180 1 182 1
325 79 6 83 7 88 15 192 11 193 6 194 9 96 14
527 79 27 95 14 203 9 193 12 97 34 205 1
680 79 3 82 3 90 15 96 34 179 13 183 3 206 17 221 1 205 6
835 99 19 100 14
490 98 19 100 3 195 2 196 13 197 21
919 89 13 93 1 98 14 99 3 195 4
232 85 1 87 20 91 2 185 7 187 11 212 5 191 4
472 74 20 86 14 87 5 88 11 200 26 191 1
318 31 8 34 7 36 37 105 29 104 5 106 14
336 34 24 62 7 63 16 103 5 105 10 107 20 108 1
189 62 23 103 29 104 10 106 14
238 36 11 57 25 62 6 103 14 105 14 109 16
395 104 20 108 27
327 63 1 64 27 104 1 107 27
84 52 14 53 15 57 15 62 12 106 16
252 57 1 58 35
397 112 1 113 52 114 6 115 16 116 63
566 111 1 117 22 114 1 118 33 119 11 116 35
466 111 52 114 40 115 20
643 111 6 112 1 113 40 117 11 115 14 125 35
154 111 16 113 20 114 14 143 26 125 20 144 31 145 64
513 111 63 112 35 119 22
689 112 22 114 11 126 8 122 25 125 29 118 9 127 11 128 4
1198 112 33 117 9 232 35 127 3 234 5 119 14
755 112 11 116 22 118 14 197 1 219 31 232 8
171 121 4 122 20 123 17 124 33 125 12
423 120 4 126 7 122 25 123 16 129 23
334 117 25 120 20 121 25 126 32 125 1
295 120 17 121 16 124 6 129 12 138 8
444 120 33 123 6 139 27 138 18 140 18 125 1
103 114 35 115 20 117 29 120 12 122 1 124 1 139 21 154 4 142 7 144 9 155 2
412 117 8 121 7 122 32 130 10 129 1 137 6 128 42 133 7
860 117 11 118 3 234 35 128 31
888 117 4 126 42 127 31 137 11 234 8
144 121 23 123 12 126 1 130 31 132 8 141 3 138 13
106 126 10 129 31 131 31 132 18 133 1
168 130 31 134 23 132 8 133 33
268 129 8 130 18 131 8 134 23 141 26 135 22
338 126 7 130 1 131 33 134 17 136 23 137 6 228 27
320 131 23 132 23 133 17 135 16 136 11
290 132 22 134 16 141 16 162 3 153 21 163 25
671 133 23 134 11 218 10 227 13 211 27 225 6 228 8
322 126 6 128 11 133 6 226 24 205 4 231 20 234 12 228 22
343 123 8 124 18 129 13 141 29 140 3 150 12 158 9
850 124 27 125 21 142 38 140 21
59 124 18 138 3 139 21 142 8 158 37 156 8
286 129 3 132 26 135 16 138 29 149 18 150 4 153 5
727 125 7 139 38 140 8 154 35 156 19
118 115 26 144 1 146 12 147 6 148 4 145 30
215 115 31 125 9 143 1 155 36 148 24
231 115 64 143 30 164 4 147 5 166 20 167 51 260 5 240 75
875 143 12 159 6 147 17 148 27
170 143 6 145 5 146 17 159 8 164 21
63 143 4 144 24 146 27 155 10 159 5
217 141 18 150 21 151 5 152 11 153 29
278 138 12 141 4 149 21 158 20 160 18 152 6
741 149 5 172 17 152 12 153 1 170 3 173 13
115 149 11 150 6 151 12 169 15 160 13 170 6
354 135 21 141 5 149 29 151 1 172 5 162 24
461 125 4 142 35 155 45 156 17 157 1
841 125 2 144 36 148 10 154 45 159 3 157 6
102 140 8 142 19 154 17 158 11 157 33 175 12 176 6 161 10
91 154 1 155 6 156 33 159 7 165 26 176 23 168 1
153 138 9 140 37 150 20 156 11 160 20 161 4
221 146 6 147 8 148 5 155 3 157 7 164 2 165 24 166 7 167 13 168 5
410 150 18 152 13 158 20 169 3 161 24
285 156 10 158 4 160 24 169 25 175 30 171 1 264 4 266 12
75 135 3 153 24 172 20 163 30
402 135 25 162 30 172 5 173 6 177 27
608 145 4 147 21 159 2 166 22
226 157 26 159 24 168 22
268 145 20 159 7 164 22 167 34
667 145 51 159 13 166 34 168 8 260 85
201 157 1 159 5 165 22 167 8 261 3 176 14 263 15 260 31 271 8
136 152 15 160 3 161 25 170 23 171 1
355 151 3 152 6 169 23 173 13 171 24 174 5
293 161 1 169 1 170 24 174 7 265 15 266 25 267 4
547 151 17 153 5 162 20 163 5 173 14
529 151 13 163 6 170 13 172 14 174 15 177 11
297 170 5 171 7 173 15 268 8 177 13 265 1
221 156 12 161 30 261 9 176 19 262 6 264 32
406 156 6 157 23 168 14 175 19 261 27
269 163 27 173 11 174 13 268 16 265 6 270 20
534 179 3 180 2 181 2 182 1 183 3 184 4
547 90 1 97 13 178 3 182 8 183 11
849 93 1 94 1 178 2 181 1 182 5 198 1 199 3
562 178 2 180 1 198 3 184 1
605 90 9 94 1 178 1 179 8 180 5
655 97 3 178 3 179 11 202 4 184 1 206 16
399 178 4 181 1 183 1 198 1 202 5
616 91 10 101 7 186 14 187 13
439 91 4 185 14 188 17 187 1 212 7 201 3
642 101 11 185 13 186 1 212 6
325 91 17 186 17 190 20 201 15
121 91 7 190 29 213 17
61 91 10 188 20 189 29 214 11 213 1 215 17 216 9 201 15 217 4
367 87 15 101 4 102 1 200 26 212 13 220 9 211 5
327 88 15 95 11 203 6 193 2 200 2 194 9 204 18
297 95 6 96 12 192 2 203 24 194 11
187 95 9 192 9 193 11
1191 93 7 99 2 100 4 196 1 199 8
693 99 13 195 1 198 3 199 3 202 4 197 13
878 99 21 119 1 196 13 202 7 206 23 219 32
456 180 1 181 3 184 1 196 3 199 3 202 1
426 93 1 180 3 195 8 196 3 198 3
416 88 2 102 26 191 26 192 2 204 19 211 16
93 186 3 188 15 190 15 212 5 220 20 216 22
610 183 4 184 5 196 4 197 7 198 1 206 1
488 96 9 192 6 193 24 204 8 205 34
186 192 18 200 19 203 8 218 20 205 7 211 13
510 96 1 97 6 137 4 203 34 204 7 218 10 226 24 221 19 231 1
1017 97 17 183 16 197 23 202 1 221 37 219 2
328 208 15 209 28 210 7
199 207 15 209 18
275 207 28 208 18 210 11 222 28 223 11
193 207 7 209 11 214 30 217 17 233 12 223 26
600 136 27 191 5 200 16 204 13 220 29 218 17 225 8
368 101 5 186 7 187 6 191 13 201 5 220 17
377 189 17 190 1 214 36
82 190 11 210 30 213 36 217 23
237 190 17 216 28 217 19 224 3 229 6 230 33
298 190 9 201 22 215 28 220 7 224 41
164 190 4 210 17 214 23 215 19 233 8 230 19
94 136 10 204 20 205 10 211 17 226 2 227 18
1008 119 31 197 32 206 2 221 21 232 33 231 7
197 191 9 201 20 211 29 212 17 216 7 224 7 225 12
604 97 1 205 19 206 37 219 21 231 43
177 209 28 223 27
255 209 11 210 26 222 27 233 27
151 215 3 216 41 220 7 225 26 229 22
169 136 6 211 8 220 12 224 26 229 19
159 137 24 205 24 218 2 227 18 228 5
155 136 13 218 18 226 18 228 13
194 133 27 136 8 137 22 226 5 227 13
207 215 6 224 22 225 19 230 4
385 215 33 217 19 229 4 233 21
661 137 20 205 1 219 7 221 43 232 2 234 36
1069 118 35 119 8 219 33 231 2 234 5
316 210 12 217 8 223 27 230 21
761 118 5 127 35 128 8 137 12 231 36 232 5
345 236 5 237 87 238 44 239 33 240 35
107 235 5 242 5 243 17 237 11 250 24 251 10 238 1 248 27
193 235 87 236 11 253 51 250 19 254 59 240 43
413 235 44 236 1 239 35 248 19 279 5
341 235 33 238 35 269 23 271 56 272 1 279 17 240 10
178 145 75 235 35 237 43 239 10 254 96 260 106 271 36 258 77
146 242 8 243 32 244 12 245 9 246 25
134 236 5 241 8 243 6 247 8 248 15 249 21 246 24
748 236 17 241 32 242 6 244 22 252 8 251 11
145 241 12 243 22 252 24 255 25
368 241 9 277 20 278 21 246 24
284 241 25 242 24 245 24 247 1 278 4
177 242 8 246 1 273 19 274 7 278 18 249 8
192 236 27 238 19 242 15 249 12 279 26
125 242 21 247 8 248 12 273 4 276 20 279 1
132 236 24 237 19 253 18 251 17
308 236 10 243 11 250 17 253 17 252 30 256 10 254 4
101 243 8 244 24 251 30 255 4 256 24
570 237 51 250 18 251 17 254 70
107 237 59 240 96 251 4 253 70 256 7 258 208
124 244 25 252 4 256 19 257 7
419 251 10 252 24 254 7 255 19 258 16 257 17 259 18
84 255 7 256 17 259 25
68 240 77 254 208 256 16 259 45
130 256 18 257 25 258 45
486 145 5 167 85 168 31 240 106 271 8
219 168 3 175 9 176 27 262 27 263 2
253 175 6 261 27 269 3 263 32 264 5
526 168 15 261 2 262 32 269 3 271 40
75 161 4 175 32 262 5 269 31 266 21
201 171 15 174 1 177 6 268 21 270 20 267 12
153 161 12 171 25 264 21 269 11 267 26 272 6
324 171 4 265 12 266 26 273 15 270 16 272 16 276 1
102 174 8 177 16 265 21
304 239 23 262 3 263 3 264 31 266 11 271 10 272 24
573 177 20 265 20 267 16 273 9 275 44
271 168 8 239 56 240 36 260 8 263 40 269 10
574 239 1 266 6 267 16 269 24 276 19 279 27
156 247 19 249 4 267 15 270 9 274 1 275 4 276 17
755 247 7 273 1 275 27 277 15 278 20
388 270 44 273 4 274 27 277 18
114 249 20 267 1 272 19 273 17 279 9
159 245 20 274 15 275 18 278 6
442 245 21 246 4 247 18 274 20 277 6
107 238 5 239 17 248 26 249 1 272 27 276 9
