413 1188 11
117 2 35 3 35 4 11 5 2
228 1 35 3 33 5 18 6 44 7 15
278 1 35 2 33 7 33
149 1 11 5 25 8 50 9 3
397 1 2 2 18 4 25 6 24 8 2 10 19
319 2 44 5 24 7 56 10 5 11 4
223 2 15 3 33 6 56 11 103 12 348 13 614
176 4 50 5 2 10 44 14 29 9 7 15 14 16 15
1073 4 3 8 7 14 80 15 19
101 5 19 6 5 8 44 17 33 11 6 16 19
209 6 4 7 103 10 6 17 34 18 62 12 34
42 7 348 11 34 25 315 20 60 18 49 27 64 13 63
1426 7 614 12 63 27 340 101 33 104 76 105 4 106 146 52 676
591 8 29 9 80 15 77
334 8 14 9 19 14 77 28 26 16 4 29 93
214 8 15 10 19 15 4 17 27 28 58 18 24
1830 10 33 11 34 16 27 18 13
147 11 62 12 49 16 24 17 13 20 31 21 15 28 9
48 20 20 21 33 22 14 23 32 24 29
240 12 60 18 31 19 20 25 8 21 19 23 35 26 8
121 18 15 19 33 20 19 28 54 24 33
44 19 14 23 29 24 14 95 28 96 29
154 19 32 20 35 22 29 26 22 96 11 97 23
48 19 29 21 33 22 14 28 4 29 26 95 18 99 37
211 12 315 20 8 26 72 27 285
73 20 8 23 22 25 72 27 4 97 23 98 66
153 12 64 13 340 25 285 26 4 101 38 98 37 102 29
114 15 26 16 58 18 9 21 54 24 4 29 19
328 15 93 24 26 28 19 99 74 60 24
509 31 15 32 55 33 14 34 18 35 1 36 1 37 57 38 27
195 30 15 46 39 32 15 47 55 38 32
269 30 55 31 15 47 16 65 17 66 26 34 20
370 30 14 50 50 71 42 34 44 51 26 37 18
367 30 18 32 20 33 44 71 39 66 48 78 12
161 30 1 118 25 36 48 116 17 38 58
325 30 1 35 48 118 31 37 53 52 48
417 30 57 33 18 36 53 50 94 52 67
100 30 27 31 32 35 58 46 19 116 20 57 20
1815 40 35 41 29 42 42 43 81 44 11
206 39 35 45 23 41 30 42 54
610 39 29 40 30 45 20 46 16 53 4 54 23 55 17 56 30 57 26 44 1
103 39 42 40 54 45 1 43 7 48 76 69 38
637 39 81 42 7 58 19 59 27 69 21 64 13 56 68 44 8
2145 39 11 41 1 43 8 56 19
113 40 23 41 20 42 1 46 50 47 18 48 21 49 40
177 31 39 38 19 41 16 45 50 47 10 57 59
124 31 55 32 16 45 18 46 10 67 1 49 2 65 49 70 6 68 6
447 42 76 45 21 67 1 49 61 69 23
1045 45 40 47 2 48 61 67 95
322 33 50 37 94 51 848 52 782
114 33 26 50 848 71 3 80 42 52 12 82 832
266 13 676 36 48 37 67 50 782 51 12 118 6 106 216
30 41 4 110 39 103 43 54 63 55 73
36 41 23 53 63 110 11 113 33 111 26 116 9 57 48
103 41 17 53 73 103 4 61 16 62 44 64 45 56 13
1921 41 30 43 68 44 19 55 13 64 89
619 38 20 41 26 46 59 54 48 116 46
136 43 19 59 155 60 10 61 36 62 58 63 35 64 17
170 43 27 58 155 69 51 75 168
302 29 24 58 10 95 3 99 73 100 74 63 47
273 55 16 58 36 103 33 62 106 63 129
1149 55 44 58 58 61 106 64 79
359 58 35 60 47 61 129 97 6 100 107 103 7
1520 43 13 55 45 56 89 58 17 62 79
169 32 17 47 49 72 2 73 44 74 28 66 25 70 1
137 32 26 34 48 65 25 72 35 78 24
836 47 1 48 1 49 95 68 92 69 15
1594 47 6 67 92 70 92 69 23
435 42 38 43 21 48 23 59 51 67 15 68 23 70 13 83 132 75 74
1381 47 6 65 1 68 92 69 13 73 65 83 6 79 41
111 33 42 34 39 51 3 80 56 81 47 78 5
233 65 2 66 35 74 36 76 22 77 9 78 11
132 65 44 70 65 74 1 77 38 79 23
73 65 28 72 36 73 1 77 31
167 59 168 69 74 83 1 88 176
102 72 22 77 1 78 37 89 31 90 1 86 30
214 72 9 73 38 74 31 76 1 89 37 79 13
121 34 12 66 24 71 5 72 11 76 37 81 48 86 27
210 70 41 73 23 77 13 83 14 89 29 91 70 87 21
407 51 42 71 56 81 3 84 53 82 50
553 71 47 78 48 80 3 84 35 85 41 86 12
105 51 832 80 50 84 2 140 635 92 1 220 195 141 3
744 69 132 70 6 75 1 79 14 87 131 88 2
39 80 53 81 35 82 2 92 52 85 17 93 16
133 81 41 84 17 86 7 93 39 223 44
379 76 30 78 27 81 12 85 7 90 14 222 39 223 20 226 4
128 79 21 83 131 91 27 94 16 88 45 176 34 159 73
56 75 176 83 2 87 45 244 138 159 29 191 30
228 76 31 77 37 79 29 91 2 90 35
518 76 1 86 14 89 35 91 23 222 44 94 26
185 79 70 87 27 89 2 90 23 94 76
97 82 1 84 52 219 24 220 39 93 22 221 27
102 84 16 85 39 92 22 219 22 224 24 223 15
244 87 16 90 26 91 76 222 1 229 87 176 10
68 22 28 24 18 60 3 96 48 99 41 100 67
30 22 29 23 11 95 48 97 71 100 5
39 23 23 26 23 63 6 96 71 98 15 100 7 103 78
198 26 66 27 37 97 15 110 6 102 41 103 39
445 24 37 29 74 60 73 95 41
470 60 74 63 107 95 67 96 5 97 7
735 13 33 27 38 107 9 102 24 105 24 108 8
34 27 29 98 41 101 24 110 6 107 28 111 24
89 53 43 55 4 61 33 63 7 97 78 98 39 110 48
1439 13 76 105 29 109 30 106 46
407 13 4 101 24 104 29 108 23 109 10
360 13 146 52 216 104 46 114 44 109 1 117 5 118 26 115 2
423 101 9 102 28 108 27 111 40 112 21
537 101 8 105 23 107 27 112 16 109 16
323 104 30 105 10 106 1 108 16 112 14 114 42
23 53 39 54 11 98 6 102 6 103 48 111 52
80 54 26 102 24 107 40 110 52 113 14 112 2
223 107 21 108 16 109 14 111 2 113 37 114 14
653 54 33 111 14 112 37 114 1 115 36 116 23
252 106 44 109 42 112 14 113 1 115 31
387 106 2 113 36 114 31 117 49 116 1
152 35 17 38 20 54 9 57 46 113 23 115 1 117 34 118 1
149 106 5 115 49 116 34 118 39
70 35 25 36 31 52 6 106 26 116 1 117 39
582 120 3 121 7 122 26 123 31 124 3 125 18
407 119 3 122 24 126 1 127 34 125 21 128 8
1683 119 7 137 5 139 9 149 34 123 2 125 10 128 40
511 119 26 120 24 126 12 163 34 124 8
1833 119 31 121 2 137 12 138 6 150 11 164 9 124 6
524 119 3 122 8 123 6 163 29 185 8 164 59 199 46 209 11 204 7
274 119 18 120 21 121 10 128 15
166 120 1 122 12 140 22 163 36 185 24 127 224 145 231
457 120 34 126 224 140 178 143 51 128 11
1450 120 8 121 40 125 15 127 11 149 1 143 52
126 130 3 131 27 132 40 133 35 134 26 135 8 136 42
404 129 3 132 50 146 18 147 14 136 28 148 44
248 129 27 151 48 133 29 152 22 153 46 135 1 154 6
103 129 40 130 50 146 21 134 30
130 129 35 131 29 152 24 192 32 134 27 193 10
722 129 26 132 30 133 27 146 10 202 62 193 6
76 129 8 131 1 224 6 240 8 235 24 236 28 246 2 153 45 136 53
296 129 42 130 28 135 53 246 26 147 13
954 121 5 123 12 138 2 139 12
680 123 6 137 2 139 1 150 7
1549 121 9 137 12 138 1 149 19 150 18
257 82 635 126 22 127 178 141 184 142 13 143 65 144 15 145 442
1678 82 3 140 184 220 170 227 56 142 8
986 140 13 141 8 227 3 232 58 147 2 144 63
769 127 51 128 52 140 65 149 3 144 52
780 140 15 142 63 143 52 149 9 147 11 148 15
133 126 231 140 442 185 23 198 32 211 76 284 214 285 6
543 130 18 132 21 134 10 149 17 164 36 201 56 202 20 148 8 203 1
1481 130 14 136 13 142 2 144 11 232 7 246 25 234 32 148 51
921 130 44 144 15 146 8 147 51 149 70
1753 121 34 128 1 139 19 143 3 144 9 146 17 148 70 150 23 164 3
1629 123 11 138 7 139 18 149 23 164 39
326 131 48 165 5 166 6 167 11 168 20 152 1 169 6 154 33
50 131 22 133 24 151 1 169 31 192 10
35 131 46 135 45 237 25 240 29 242 19 154 8
214 131 6 151 33 153 8 165 20 178 20 242 26
570 156 78 157 53 158 1 159 20 160 2 161 11 162 82
1464 155 78 158 21 170 27 171 72 159 58 172 43
408 155 53 183 29 184 41 158 16 160 4
1051 155 1 156 21 157 16 188 1 184 41 189 53 171 38
232 87 73 88 29 155 20 156 58 176 63 244 17 172 53 162 6
927 155 2 157 4 183 19 186 15 161 12
81 155 11 160 12 186 38 191 39 162 23
738 155 82 159 6 161 23 244 89 191 12
421 122 34 124 29 126 36 185 36
573 123 9 124 59 146 36 149 3 150 39 201 26 204 11
1451 151 5 154 20 173 32 174 22 167 24 177 21 178 12 179 6 180 11 181 1
744 151 6 173 4 174 39 167 12 168 54 175 6
1101 151 11 165 24 166 12 174 20
817 151 20 166 54 169 5 175 11 182 60
578 151 6 152 31 168 5 192 35 182 52 194 3
105 156 27 173 49 175 2 195 41 171 13 196 18 172 43
25 156 72 158 38 170 13 188 40 196 63 208 46 190 44
294 156 43 159 53 170 43 173 29 176 62
1285 165 32 166 4 170 49 172 29 174 24 175 47 176 1 177 22
1052 165 22 166 39 167 20 173 24
375 166 6 168 11 170 2 173 47 195 36 182 9 197 50
1194 87 34 94 10 159 63 172 62 173 1 229 50 177 16 239 51
405 165 21 173 22 176 16 243 32 239 61 180 18
1572 154 20 165 12 245 3 242 9 181 21
119 165 6 245 1 180 22 181 17
134 165 11 177 18 179 22 243 9 245 9
1038 165 1 178 21 179 17 245 4
973 168 60 169 52 175 9 197 45 194 45 206 9
369 157 29 160 19 186 28 184 25 187 1
264 157 41 158 41 183 25 188 5 189 8 187 38
358 124 8 126 24 145 23 163 36 198 45 199 28
157 160 15 161 38 183 28 191 44 187 55
169 183 1 184 38 186 55 188 56 191 42 190 66 330 189
755 158 1 171 40 184 5 187 56 189 59 190 62
865 158 53 184 8 188 59
170 171 44 187 66 188 62 208 20 303 67 330 162
202 88 30 161 39 162 12 186 44 187 42 244 80
236 133 32 152 10 169 35 205 22 194 1 193 29
1452 133 10 134 6 192 29 205 31 210 12 202 11 213 8 218 17
1476 169 3 182 45 192 1 205 31 210 11 216 34 214 34 206 6
172 170 41 175 36 197 5 196 40 200 9
577 170 18 171 63 195 40 200 51 208 19
823 175 50 182 45 195 5 207 40 200 10 206 38
553 145 32 185 45 199 39 211 44
130 124 46 185 28 198 39 267 17 209 50 271 19 211 32
156 195 9 196 51 197 10 207 17 206 7 208 47
388 146 56 164 26 203 58 204 57
1268 134 62 146 20 193 11 203 37 217 4 218 22
259 146 1 201 58 202 37 275 2 217 40 276 37 204 9
273 124 7 164 11 201 57 203 9 275 32 209 63 271 11
213 192 22 193 31 194 31 210 16
1273 182 9 194 6 197 38 200 7 207 39 216 19 297 84 298 1 208 2
1001 197 40 200 17 206 39
79 171 46 190 20 196 19 200 47 206 2 297 30 300 59 303 27
687 124 11 199 50 204 63 271 57
1282 193 12 194 11 205 16 212 11 213 16 214 6 215 10
71 145 76 198 44 199 32 267 78 285 98 272 5
1550 210 11 304 5 305 12 214 2 306 11 215 21 307 1
350 193 8 210 16 218 28 310 13 215 16
66 194 34 210 6 212 2 216 24 305 4 308 6
453 210 10 212 21 213 16 310 8 314 6 319 13 322 4 311 6 307 1
1289 194 34 206 19 214 24 308 10 298 63
276 202 4 203 40 309 23 218 28 276 25
111 193 17 202 22 213 28 217 28 309 9 310 1
64 92 24 93 22 224 1 225 37 221 36
41 82 195 92 39 141 170 227 19 221 24
246 92 27 219 36 220 24 230 15 227 24 225 2 231 15
123 86 39 90 44 94 1 228 24 229 11 226 43
155 85 44 86 20 93 15 224 10 235 33 226 51
280 93 24 135 6 219 1 223 10 225 41 235 46 236 22
148 219 37 221 2 224 41 230 11 233 20 236 18
144 86 4 222 43 223 51 228 31 237 20 240 9 235 8
756 141 56 142 3 220 19 221 24 231 28 232 28
241 222 24 226 31 237 2 229 36 238 51 239 13
492 94 87 176 50 222 11 228 36 239 41
213 221 15 225 11 231 42 232 9 233 44 234 1
635 221 15 227 28 230 42 232 32
328 142 58 147 7 227 28 230 9 231 32 234 10
719 225 20 230 44 236 12 234 36
1120 147 32 230 1 232 10 233 36 236 9 246 20
102 135 24 223 33 224 46 226 8 240 47
295 135 28 224 22 225 18 233 12 234 9 246 28
61 153 25 226 20 228 2 240 38 238 5 241 36 242 8
53 228 51 237 5 243 3 239 17 241 44
688 176 51 177 61 228 13 229 41 238 17 243 4
27 135 8 153 29 226 9 235 47 237 38
272 237 36 238 44 243 16 242 26
118 153 19 154 26 178 9 237 8 241 26 243 15 245 9
164 177 32 180 9 238 3 239 4 241 16 242 15 245 12
777 88 138 159 17 162 89 191 80
1339 178 3 179 1 180 9 181 4 242 9 243 12
64 135 2 136 26 147 25 234 20 236 28
692 248 3 249 11 250 1 251 12 252 2
691 247 3 253 4 251 11 252 5 254 2 255 1 256 9
796 247 11 257 10 250 8 252 2 261 7 255 1
781 247 1 249 8 257 8 259 6 273 17 280 7 286 14 295 6 251 84 296 36 289 66
623 247 12 248 11 250 84 295 20 301 50 256 7
813 247 2 248 5 249 2 255 3
462 248 4 348 4 262 1 254 6 255 5
608 248 2 253 6 348 1 345 6 349 2 352 1 346 1 256 4
408 248 1 249 1 252 3 253 5 261 3 262 1 263 3
787 248 9 251 7 254 4 301 22 345 1 344 4
615 249 10 250 8 258 20 259 6 260 5 261 6 262 9 263 3
1212 257 20 259 52 264 5 265 36 266 10 260 4
2432 250 6 257 6 258 52 273 2 274 46 264 15
1039 257 5 258 4 341 5 265 6 348 1 350 7 339 7 262 12 347 2
662 249 7 255 3 257 6 263 2
680 253 1 255 1 257 9 260 12 348 3 263 6
855 255 3 257 3 261 2 262 6
40 258 5 259 15 275 35 274 27 281 6 290 30 266 40 277 47 291 27
471 258 36 260 6 341 15 324 23 317 8 266 25
100 258 10 264 40 265 25 275 47 276 47 321 11 317 2
379 199 17 211 78 268 88 269 25 270 34 271 20 272 34
141 267 88 269 23 282 36 283 69 272 7
194 267 25 268 23 275 18 282 25 270 55 277 49
439 267 34 269 55 275 34 271 62
382 199 19 204 11 209 57 267 20 270 62 275 28
165 211 5 267 34 268 7 278 43 279 41 285 46 283 23
1325 250 17 259 2 274 39 280 29 281 17
1485 259 46 264 27 273 39 281 11
88 203 2 204 32 264 35 266 47 269 18 270 34 271 28 276 27 277 1
237 203 37 217 25 266 47 275 27 309 2 311 18 321 6
168 264 47 269 49 275 1 282 50 291 66 364 17
158 272 43 279 26
223 272 41 278 26 284 2 285 48
1435 250 7 273 29 286 33 281 6
775 264 6 273 17 274 11 280 6 286 12 290 8 287 15
98 268 36 269 25 277 50 283 48
264 268 69 272 23 282 48
207 145 214 279 2 285 99
53 145 6 211 98 272 46 279 48 284 99
2168 250 14 280 33 281 12 287 30 288 11 289 15
1403 281 15 286 30 290 29 288 28
1526 286 11 287 28 292 11 290 1 293 28 289 15
1041 250 66 286 15 288 15 296 4 293 9 405 15 407 39 408 30 368 27 375 5 370 41
964 264 30 281 8 287 29 288 1 292 7 294 42 291 3
157 264 27 277 66 290 3 294 23 364 49 379 41
2507 288 11 290 7 293 10 294 11
1996 288 28 289 9 292 10 405 37 294 8
2249 290 42 291 23 292 11 293 8 406 26 405 1 379 24
970 250 6 251 20 297 74 298 24 299 4 300 54 301 34 302 15 303 33 296 40
379 250 36 289 4 295 40 303 60 351 69 370 79
376 206 84 208 30 295 74 298 2 300 17
1395 206 1 216 63 295 24 297 2 304 4 305 1 308 1 299 56 306 10
1582 295 4 298 56 306 17 312 32 307 16 302 31
221 208 59 295 54 297 17 303 86
815 251 50 256 22 295 34 335 43 302 11 342 3 343 4 344 1
1011 295 15 299 31 301 11 325 5 312 30 328 28 335 24
903 190 67 208 27 295 33 296 60 300 86 330 58 351 80
1434 212 5 298 4 305 4 306 8
1474 212 12 214 4 298 1 304 4 308 11
1108 212 11 298 10 299 17 304 8 307 3
1433 212 1 215 1 299 16 306 3 322 21 312 7 326 4 323 4
1127 214 6 216 10 298 1 305 11
357 217 23 218 9 276 2 310 18 311 10
370 213 13 215 8 218 1 309 18 311 17
1437 215 6 276 18 309 10 310 17 314 1 318 8 321 24
931 299 32 302 30 307 7 325 5 326 4
875 314 7 315 4 316 4 317 4
557 215 6 311 1 313 7 315 2 318 10 319 10 317 1
546 313 4 314 2 319 3 320 6 316 1
1027 313 4 315 1 320 7 324 12 317 15
888 265 8 266 2 313 4 314 1 316 15 318 16 321 13 324 9
808 311 8 314 10 317 16 321 18
976 215 13 314 10 315 3 322 16 320 1
921 315 6 316 7 319 1 322 10 324 8 323 2
459 266 11 276 6 311 24 317 13 318 18
987 215 4 307 21 319 16 320 10 323 5
629 307 4 320 2 322 5 326 11 338 1 324 1 340 14 329 1
950 265 23 316 12 317 9 320 8 323 1 341 11 340 2
1263 302 5 312 5 326 3 327 1 328 1 329 3
1061 307 4 312 4 323 11 325 3 329 5
609 325 1 338 1 337 2 334 1 328 4 329 4
1092 302 28 325 1 327 4 334 18 335 8
1566 323 1 325 3 326 5 327 4 338 4
1690 187 189 190 162 303 58 380 99 381 246 351 104
673 332 3 333 4 334 1 335 9 336 3
833 331 3 333 1 337 2 334 5
541 331 4 332 1 338 5 337 4 336 2 339 1
877 327 1 328 18 331 1 332 5 337 1 335 14
847 301 43 302 24 328 8 331 9 334 14 336 1 343 10
670 331 3 333 2 335 1 343 1 346 3 339 8 347 7
711 327 2 332 2 333 4 334 1 338 1
719 323 1 327 1 329 4 333 5 337 1 340 5 339 7
1029 260 7 333 1 336 8 338 7 341 11 340 5 347 2
896 323 14 324 2 338 5 339 5 341 12
911 260 5 265 15 324 11 339 11 340 12
494 301 3 343 6 345 1 344 2 346 1
643 301 4 335 10 336 1 342 6 346 3
630 256 4 301 1 342 2 345 5
612 254 6 256 1 342 1 344 5 346 2
563 254 1 336 3 342 1 343 3 345 2 352 3 347 2
515 260 2 336 7 339 2 346 2 352 4 350 2
261 253 4 254 1 260 1 262 3 349 3 350 2
1154 254 2 348 3 352 4 350 3
575 260 7 347 2 348 2 349 3 352 1
277 296 69 303 80 330 104 366 110 380 61 367 37 370 38
586 254 1 346 3 347 4 349 4 350 1
668 354 4 355 28 356 39 357 15 358 3 359 6 360 25 361 1
100 353 4 376 44 355 36 377 21 356 38 379 22 365 11
140 353 28 354 36 372 14 373 36 377 15 388 26 386 5 360 5
573 353 39 354 38 406 42 405 1 407 1 359 32 379 15
882 353 15 372 12 408 6 375 35 359 1 360 17 361 9
364 353 3 360 4 361 8
927 353 6 356 32 357 1 407 31 408 26
623 353 25 355 5 357 17 358 4 372 25 361 1
837 353 1 357 9 358 8 360 1
40 363 31 364 35 365 25
115 362 31 376 22 387 7 378 12 365 35
137 277 17 291 49 362 35 379 26 365 12
89 354 11 362 25 363 35 364 12 376 42 379 40
410 351 110 367 23 368 43 369 49 370 13 371 80
271 351 37 366 23 372 31 380 12 384 103 374 109 371 158 392 132 390 31
156 289 27 366 43 375 16 369 39 370 80
121 366 49 368 39 375 19 371 82
367 289 41 296 79 351 38 366 13 368 80
211 366 80 367 158 369 82 372 8 375 32
276 355 14 357 12 360 25 367 31 371 8 373 56 374 22 375 40
968 355 36 372 56 386 55 374 36
260 367 109 372 22 373 36 386 3 394 6 392 89 403 44
835 289 5 357 35 368 16 369 19 371 32 372 40 408 65
84 354 44 363 22 365 42 377 36 378 17
143 354 21 355 15 376 36 388 39 378 35 389 11
611 363 12 376 17 377 35 387 60 391 53 389 2
139 291 41 294 24 354 22 356 15 364 26 365 40 406 37
498 330 99 351 61 367 12 382 4 383 22 384 164 381 147
263 330 246 380 147 382 599
88 380 4 381 599 383 24 384 9 385 609
620 380 22 382 24 384 30
402 367 103 380 164 382 9 383 30 390 148 385 43
122 382 609 384 43 390 109 410 577
274 355 5 373 55 374 3 388 26 389 5 393 25 394 43
72 363 7 378 60
766 355 26 377 39 386 26 389 43
256 377 11 378 2 386 5 388 43 395 18 391 37 393 15 404 13 397 2
654 367 31 384 148 385 109 392 4 410 260
375 378 53 389 37 404 43
157 367 132 374 89 390 4 403 52 409 106 410 194
40 386 25 389 15 395 36 396 2 401 1 394 22
643 374 6 386 43 393 22 401 25 403 26
149 389 18 393 36 396 1 397 14 398 19 399 28
130 393 2 395 1 400 34 401 11 402 21 399 39
190 389 2 395 14 404 50 411 30 398 21
83 395 19 397 21 411 26 412 14 402 22 399 27
298 395 28 396 39 398 27 402 13
134 396 34 401 19 403 37 402 7
1004 393 1 394 25 396 11 400 19 403 12
105 396 21 398 22 399 13 400 7 403 8 409 43
564 374 44 392 52 394 26 400 37 401 12 402 8 409 10
69 389 13 391 43 397 50
1436 289 15 293 37 294 1 356 1 406 35 407 26
1989 294 26 356 42 379 37 405 35
375 289 39 356 1 359 31 405 26 408 24
123 289 30 357 6 359 26 375 65 407 24
286 392 106 402 43 403 10 413 67
679 385 577 390 260 392 194
47 397 30 398 26 412 36
53 398 14 411 36
238 409 67
