252 697 11
142 2 13 3 40 4 17
39 1 13 4 432 5 286
50 1 40 6 61 4 27
74 1 17 2 432 3 27 6 137 7 28 5 279
106 2 286 4 279 13 40 7 114 15 67 26 363 20 229
289 3 61 4 137 7 185
86 4 28 5 114 6 185 8 17 13 75 14 7 10 34 12 31
84 7 17 9 30 10 67 11 6 12 55
142 8 30 11 68 12 38
174 7 34 8 67 14 42 17 18 11 3 25 31
49 8 6 9 68 10 3 25 49
26 7 31 8 55 9 38
556 5 40 7 75 14 74 15 87 16 11
797 7 7 10 42 13 74 16 23 17 27
578 5 67 13 87 16 3 18 31 19 9 20 77
673 13 11 14 23 15 3 21 1 17 13 22 31 18 8
1227 10 18 14 27 16 13 21 7 23 13 25 6
356 15 31 16 8 21 7 23 9 22 25 24 53 19 9
39 15 9 18 9 24 19 27 11 31 59 20 71 28 83
122 5 229 15 77 19 71 31 213 26 7
578 16 1 17 7 18 7 23 10 22 8
595 16 31 18 25 21 8
114 17 13 18 9 21 10 24 15 25 28
41 18 53 19 19 23 15 25 20 27 64
156 10 31 11 49 17 6 23 28 24 20 27 21
160 5 363 20 7 31 90 38 239 39 210 35 203
32 19 11 24 64 25 21 28 27 29 41
32 19 83 27 27 30 47 31 15 29 44
54 27 41 28 44 30 56 32 22
55 28 47 29 56 31 53 32 68 33 51
97 19 59 20 213 26 90 28 15 30 53 33 48 34 130 35 79
157 29 22 30 68 36 75 33 23 37 51
122 30 51 31 48 32 23 37 89 34 83 43 51
130 31 130 33 83 99 120 35 34 43 66 60 46
119 26 203 31 79 34 34 38 51 56 44 40 105 99 143 59 39
1148 32 75 37 42 41 58 42 4
163 32 51 33 89 36 42 42 64 76 33 43 10
550 26 239 35 51 39 246 40 86
126 26 210 38 246 40 73 63 133 64 138 65 40 66 25
666 35 105 38 86 39 73 56 16 77 121 66 125 79 99
140 36 58 42 49 98 59
42 36 4 37 64 41 49 76 66 98 14 53 27
541 33 51 34 66 37 10 55 3 76 17 60 71 73 73
78 45 28 46 8 47 27 48 27 49 16
444 44 28 48 2 50 33 51 45 52 13 53 26 49 45
97 44 8 47 22 61 28 62 2
246 44 27 46 22 48 28 62 25 67 12
563 44 27 45 2 47 28 51 44 52 19 67 27
106 44 16 45 45 98 9 53 43 100 53
152 45 33 68 17 69 64 52 17 76 26 53 36 73 33
125 45 45 48 44 52 56
249 45 13 48 19 50 17 51 56 68 49 67 1 82 5 70 30 83 19
118 42 27 45 26 49 43 50 36 76 35 98 32
204 55 68 56 48 57 32 58 68 59 38 60 38
317 43 3 54 68 69 58 57 36 60 67 73 46 74 14
68 35 44 40 16 54 48 77 120 58 34 59 122 78 49
831 54 32 55 36 58 59 74 88
149 54 68 56 34 57 59 78 63 74 38 85 22 86 31
166 35 39 54 38 56 122 99 113 60 34
164 34 46 43 71 54 38 55 67 59 34 99 45
118 46 28 62 22 72 20
565 46 2 47 25 61 22 72 10 67 30 75 10
105 39 133 64 57 65 284 80 131 81 75
657 39 138 63 57 80 185 66 174
109 39 40 63 284 81 7
157 39 25 40 125 64 174 80 31 79 153
322 47 12 48 27 52 1 62 30 82 49 75 21
212 50 17 52 49 69 27 70 50 71 50
102 50 64 55 58 68 27 71 62 73 52 74 2
86 52 30 68 50 87 33 88 35 83 1 71 2
188 68 50 69 62 70 2 88 28 89 14 96 19 93 17 97 66 74 9
97 61 20 62 10 75 59
139 43 73 50 33 55 46 69 52 76 60
1206 55 14 57 88 58 38 69 2 71 9 224 22 97 93 232 9 86 28
346 62 10 67 21 72 59 82 22 84 41
182 37 33 42 66 43 17 50 26 53 35 73 60
321 40 121 56 120 78 140 79 58
328 56 49 58 63 77 140 85 98 127 4
81 40 99 66 153 77 58 246 47
1302 63 131 64 185 66 31 81 65
565 63 75 65 7 80 65 225 122
67 52 5 67 49 75 22 83 53 84 33
442 52 19 70 1 82 53 87 46 90 10 84 29 92 17 95 15
184 75 41 82 33 83 29 95 49
329 58 22 78 98 86 93 234 42 127 89
923 58 31 74 28 85 93 232 82 234 28
238 70 33 83 46 88 29 89 4 90 35
564 70 35 71 28 87 29 89 37
754 71 14 87 4 88 37 91 21 90 18 93 42
165 83 10 87 35 89 18 91 16 92 35
320 89 21 90 16 92 15 93 22 94 28
416 83 17 90 35 91 15 94 32 95 22 222 21
311 71 17 89 42 91 22 96 34 94 8 223 50 226 14
157 91 28 92 32 93 8 222 22 226 28 227 38
671 83 15 84 49 92 22 222 61 228 1
305 71 19 93 34 223 8 224 64 97 69
1187 71 66 74 93 96 69 224 10
153 41 59 42 14 49 9 53 32 100 42
799 34 120 35 143 59 113 60 45
233 49 53 98 42
394 102 26 103 94 104 98
440 101 26 113 22 119 22 120 38 103 1 104 15 118 14 121 17
261 101 94 102 1 112 116 113 60 104 48 114 39
252 101 98 102 15 103 48 120 1 159 137 148 20 114 14
935 106 22 107 35 108 12 109 27 110 28 111 17
261 105 22 109 24 132 34 111 32 133 1 129 2
513 105 35 134 4 110 10 137 11 138 1 111 3 139 37 136 51
766 105 12 109 7 110 48 145 57 146 34
309 105 27 106 24 108 7 132 27 145 1 147 45 142 18
227 105 28 107 10 108 48 134 64 120 2 148 1 146 36
130 105 17 106 32 107 3 133 29 139 20
259 103 116 113 19 114 35 115 195 116 1 117 40 118 3
82 102 22 103 60 112 19 117 43 118 2
729 103 39 104 14 112 35 159 42 160 41 179 42 188 16 189 1504 190 284 115 156 191 413
76 112 195 114 156 116 9 201 246 191 83
1424 112 1 115 9 201 2 241 11 244 34 118 35
334 112 40 113 43 118 37
1024 102 14 112 3 113 2 116 35 117 37 243 25 244 1 121 5
149 102 22 120 16 130 6 131 22 121 20
813 102 38 104 1 110 2 119 16 134 32 148 63 130 35
415 102 17 118 5 119 20 243 32 245 7 131 17 247 1
1069 123 42 124 55 125 56 126 26 127 98 128 6 129 5
312 122 42 124 50 132 47 129 45
728 122 55 123 50 140 38 132 7 125 54 144 45
238 122 56 124 54 144 75 170 64
172 122 26 234 18 236 22 127 42 128 40
485 78 4 85 89 122 98 126 42 234 29
348 122 6 126 40 236 25 138 11 133 5 129 52
330 106 2 122 5 123 45 128 52 132 3 133 35
1036 119 6 120 35 134 38 135 19 239 12 131 3 247 41
291 119 22 121 17 130 3 247 30
483 106 34 109 27 123 47 124 7 129 3 140 25 142 1
123 106 1 111 29 128 5 129 35 138 19 139 19
1210 107 4 110 64 120 32 130 38 135 7 136 43
448 130 19 134 7 231 3 137 27 239 62 136 54
598 107 51 134 43 135 54 137 11
529 107 11 135 27 136 11 233 4 231 26 235 40 138 43
274 107 1 128 11 133 19 137 43 236 24 235 3 139 30
223 107 37 111 20 133 19 138 30
98 124 38 132 25 141 4 142 36 143 13 144 15
128 140 4 149 25 142 29 143 36
143 109 18 132 1 140 36 141 29 149 5 147 10 151 12
293 140 13 141 36 149 16 144 50 152 41
451 124 45 125 75 140 15 143 50 152 19 170 21
627 108 57 109 1 147 41 150 17 157 23 158 10 146 7 151 11
558 108 34 110 36 145 7 153 16 148 3 154 46 158 6 155 14
260 109 45 142 10 145 41 151 43
1299 104 20 110 1 120 63 146 3 159 20 154 27 160 21 156 40
387 141 25 142 5 143 16 150 40 151 35 152 14
131 145 17 149 40 157 26 151 19 161 50 152 11 162 17 163 3
273 142 12 145 11 147 43 149 35 150 19
1463 143 41 144 19 149 14 150 11 161 1 181 67 182 4 170 62
822 146 16 154 18 155 33 156 11
201 146 46 148 27 153 18 156 32
929 146 14 153 33 176 20 158 16 156 9 177 10 180 8
1133 148 40 153 11 154 32 155 9 176 11 160 6 179 38 178 7
1273 145 23 150 26 164 9 158 20 165 13 162 31
1223 145 10 146 6 155 16 157 20 165 16 180 19
205 104 137 114 42 148 20 160 109
500 114 41 148 21 156 6 159 109 179 91
316 150 50 152 1 181 42 182 10 183 24 163 38
1396 150 17 157 31 164 13 163 36 175 21
703 150 3 161 38 162 36 192 16 183 58 197 24 175 27 198 29
1024 157 9 162 13 165 1 174 12 175 8
1142 157 13 158 16 164 1 173 5 180 1 174 12
628 167 7 168 12 169 8
597 166 7 171 7 172 5 168 3 169 1 178 2
854 166 12 167 3 184 21 169 1 178 19 186 20 175 27
909 166 8 167 1 168 1 171 5 174 3 175 12
245 125 64 144 21 152 62 182 35 199 63 196 13 200 14
902 167 7 169 5 172 6 173 2 174 8
726 167 5 171 6 176 4 173 8 177 1 178 9
900 165 5 171 2 172 8 177 7 180 6 174 2
1206 164 12 165 12 169 3 171 8 173 2 175 3
1306 162 21 163 27 164 8 168 27 169 12 174 3 197 14 186 1
836 155 20 156 11 172 4 177 14 178 33
1093 155 10 172 1 173 7 176 14 180 11
860 156 7 167 2 168 19 172 9 176 33 184 25 179 6 187 5
840 114 42 156 38 160 91 178 6 188 12 187 78
1122 155 8 158 19 165 1 173 6 177 11
166 152 67 161 42 182 48
1121 152 4 161 10 170 35 181 48 183 52 196 49
649 161 24 163 58 182 52 198 36 196 61
67 168 21 178 25 185 23 186 9 187 43
1318 184 23 188 26 192 8 197 11 186 36 187 32
338 168 20 175 1 184 9 185 36 197 50
1602 178 5 179 78 184 43 185 32 188 43
246 114 16 179 12 185 26 187 43 189 15 192 14 190 37 193 27 194 60
239 114 1504 188 15 190 266 193 1724 195 258
181 114 284 188 37 189 266
223 114 413 115 83 240 13 228 45 201 212
510 163 16 185 8 188 14 197 69 198 69 194 42
140 188 27 189 1724 202 234 194 2 203 242 195 1261
410 188 60 192 42 193 2 202 68 198 43 203 19
119 189 258 193 1261 214 77 208 343 216 69 203 12 217 32 250 171 249 95 252 1729
1277 170 13 182 49 183 61 204 53 198 23 199 24 213 42 206 69
362 163 24 175 14 185 11 186 50 192 69
1079 163 29 183 36 192 69 194 43 196 23 204 102 203 15
640 170 63 196 24 210 30 213 83 200 108 206 28
77 170 14 199 108 210 115
585 115 246 116 2 191 212 240 36 241 34
109 193 234 194 68 203 244
84 193 242 194 19 195 12 198 15 202 244 204 7 205 160 208 335
45 196 53 198 102 203 7 205 31 206 36 207 127
125 203 160 204 31 208 124 207 43
1147 196 69 199 28 204 36 210 18 213 80 215 14 211 41 212 33 207 44 217 52
102 204 127 205 43 206 44 208 37 215 118
69 195 343 203 335 205 124 207 37 215 23 216 70 218 54
552 210 47 211 19 212 58
250 199 30 200 115 206 18 209 47 212 101
141 206 41 209 19 219 136 212 92 220 45 217 40 221 4
848 206 33 209 58 210 101 211 92
916 196 42 199 83 206 80
64 195 77 215 3 216 75 217 33
76 206 14 207 118 208 23 214 3 216 29 218 45 217 125
92 195 69 208 70 214 75 215 29 218 56
77 195 32 206 52 211 40 214 33 215 125 248 93 221 22 249 78
169 208 54 215 45 216 56
744 211 136 220 45 221 163
742 211 45 219 45
169 211 4 217 22 219 163 248 72 251 180 250 81
1003 92 21 94 22 95 61 227 6 228 37 229 35
345 93 50 96 8 224 43 226 37 230 23 231 36
1310 74 22 96 64 97 10 223 43 232 77 233 9 231 10
44 81 122
430 93 14 94 28 223 37 227 41 230 38
1109 94 38 222 6 226 41 230 5 237 11 238 27 229 36
1075 95 1 191 45 222 37 240 44 229 16 242 25
131 222 35 227 36 228 16 237 44 242 32
469 223 23 226 38 227 5 231 40 238 36 239 49
891 135 3 137 26 223 36 224 10 230 40 233 62 239 28
437 74 9 86 82 224 77 234 4 233 57 235 4
302 137 4 224 9 231 62 232 57 235 53
87 85 42 86 28 126 18 127 29 232 4 236 35 235 20
558 137 40 138 3 232 4 233 53 234 20 236 37
1232 126 22 128 25 138 24 234 35 235 37
278 227 11 229 44 238 43 243 12 244 1 242 23
638 227 27 230 36 237 43 243 8 239 4 245 51
1174 130 12 135 62 230 49 231 28 238 4 245 20 247 16
899 191 13 201 36 228 44 241 31 242 38
969 116 11 201 34 240 31 244 16 242 10
1158 228 25 229 32 237 23 240 38 241 10 244 30
326 118 25 121 32 237 12 238 8 245 35 244 32
131 116 34 118 1 237 1 241 16 242 30 243 32
268 121 7 238 51 239 20 243 35 247 39
35 79 47
553 121 1 130 41 131 30 239 16 245 39
51 217 93 221 72 250 99 249 72
143 195 95 217 78 248 72 250 96
191 195 171 221 81 248 99 249 96 251 80 252 248
362 221 180 250 80 252 149
109 195 1729 250 248 251 149
