263 700 11
90 2 18 3 38
433 1 18 4 56
270 1 38 5 34 6 13 10 41
159 2 56
82 3 34 6 3 7 60 8 15
290 3 13 5 3 9 21 10 37 7 30
76 5 60 6 30 9 24 8 46 12 20
86 5 15 7 46 22 27 23 34 12 37
616 6 21 7 24 10 26 11 42 12 33
45 3 41 6 37 9 26
544 9 42 18 36 15 25 19 18 12 19
115 7 20 8 37 9 33 11 19 14 10 15 6 16 10 35 4 22 12 24 15
295 14 6 15 6 16 7 17 10
342 12 10 13 6 16 21 24 34 17 1
778 11 25 12 6 13 6 16 14 19 9 17 7
461 12 10 13 7 14 21 15 14
211 13 10 14 1 15 7 31 11 19 16 24 1
182 11 36 19 32 20 15 21 51
854 11 18 15 9 17 16 18 32 26 10 31 13 20 17
339 18 15 19 17 26 8 27 7 28 22 34 1 21 41 46 10
260 18 51 20 41 43 80 45 1 46 6
136 8 27 12 12 35 29 23 12 42 44 36 50
19 8 34 22 12 41 7 42 31
1045 12 15 14 34 17 1 35 34 31 8 32 12
345 26 4 27 16 28 20 29 1 30 6
287 19 10 20 8 25 4 28 19 31 21 32 24 33 10 30 16
128 20 7 25 16 28 1 34 20 29 2
559 20 22 25 20 26 19 27 1
307 25 1 27 2 43 14 34 5 44 36 30 51
195 25 6 26 16 29 51 33 37 49 35
433 17 11 19 13 24 8 26 21 32 13
843 24 12 26 24 31 13 35 31 33 6
355 26 10 30 37 32 6 35 9 37 42 49 13 50 8 51 17
545 20 1 27 20 29 5 44 2 46 15
525 12 4 22 29 24 34 32 31 33 9 36 19 37 24
104 22 50 35 19 42 17 37 46 50 15 48 34
317 33 42 35 24 36 46 50 38
20 39 2 40 50
53 38 2 41 46 42 5 47 27 52 5 40 29 56 24
68 38 50 39 29 55 15 56 30
14 23 7 39 46 42 41
14 22 44 23 31 36 17 39 5 41 41 47 5 48 20
300 21 80 29 14 44 18 45 96 46 5
288 29 36 34 2 43 18 46 26
85 21 1 43 96
604 20 10 21 6 34 15 43 5 44 26
153 39 27 42 5 52 14 53 44 54 28 48 5
34 36 34 42 20 47 5 68 29 63 24 53 38 50 20
641 30 35 33 13 60 23 51 41
20 33 8 36 15 37 38 48 20 68 40 51 29 61 48
126 33 17 49 41 50 29 60 9 61 27
44 39 5 47 14 55 25 56 32 54 35
158 47 44 48 38 63 19 57 22 54 2
441 47 28 52 35 53 2 55 1 57 26
170 40 15 52 25 54 1 56 24 57 1 58 41
91 39 24 40 30 52 32 55 24
60 53 22 54 26 55 1 62 30 63 2 58 23 66 15
79 55 41 57 23 64 6 66 47 131 1
123 60 31 61 29
201 49 23 51 9 59 31 61 9
28 50 48 51 27 59 29 60 9 68 7 120 18 69 22
23 57 30 63 17 64 1 65 1 66 16 67 39
48 48 24 53 19 57 2 62 17 68 29 65 2
11 58 6 62 1 128 24 129 32 125 1 66 53 67 2 131 13
308 62 1 63 2 68 57 124 30 69 27 125 10 67 34
24 57 15 58 47 62 16 64 53
76 62 39 64 2 65 34 125 38
102 48 29 50 40 61 7 63 29 65 57 69 8
442 61 22 65 27 68 8 120 47 124 24 122 4
633 71 25 72 20 73 17 74 6 75 2 76 1
155 70 25 73 27 83 12 75 50
115 70 20 87 17 74 10 88 9 76 27
208 70 17 71 27 74 12 83 17 90 35
158 70 6 72 10 73 12 88 23 90 13 92 8 93 4
153 70 2 71 50 111 39 76 12 110 13
142 70 1 72 27 75 12 87 10 103 10 111 8 81 4 107 24
137 78 26 79 22 80 25 81 13 82 7
272 77 26 79 1 84 22 85 16 86 6 82 21
65 77 22 78 1 87 16 86 26 89 22 81 9
58 77 25 103 9 104 24 81 13 82 12
24 76 4 77 13 79 9 80 13 87 28 103 24
120 77 7 78 21 80 12 84 17 104 38 96 100 106 56 112 5
14 71 12 73 17 90 7 94 39
160 78 22 82 17 85 13 95 29 96 29
192 78 16 84 13 95 22 86 18 99 4
114 78 6 79 26 85 18 89 20 99 30
36 72 17 76 10 79 16 81 28 88 22 91 1 89 1
66 72 9 74 23 87 22 91 16 97 2 92 9
75 79 22 86 20 87 1 91 26 102 17 99 2
272 73 35 74 13 83 7 93 6 98 30 94 10
63 87 1 88 16 89 26 102 1 97 22
106 74 8 88 9 97 14 93 18 226 14 223 5
141 74 4 90 6 92 18 98 12 223 4 224 11
44 83 39 90 10 202 32 98 1 222 20
143 84 29 85 22 96 13 99 1 100 32 101 23
60 82 100 84 29 95 13 112 21 101 35
104 88 2 91 22 92 14 102 14 226 3
337 90 30 93 12 94 1 224 4 222 28
340 85 4 86 30 89 2 95 1 205 3 225 1 206 30 102 2 207 24 100 16
375 95 32 99 16 207 14 101 20
489 95 23 96 35 100 20 205 48 207 23
35 89 17 91 1 97 14 99 2 225 26 226 11
70 76 10 80 9 81 24 104 25 105 17 106 11 107 14
82 80 24 82 38 103 25 106 53
152 103 17 108 35 113 1 114 39 109 8 106 2 107 1
19 82 56 103 11 104 53 105 2 114 25 112 106
117 76 24 103 14 105 1 108 29 111 14 110 5
105 105 35 107 29 109 3 110 14
75 105 8 108 3 113 49 110 49
146 75 13 107 5 108 14 109 49 111 36
134 75 39 76 8 107 14 110 36
234 82 5 96 21 106 106 114 39 115 82 116 89
152 105 1 109 49 114 34
122 105 39 106 25 112 39 113 34
216 112 82 117 52 116 42
91 112 89 115 42 117 78 118 55
37 115 52 116 78 118 50 119 61
67 116 55 117 50 235 49 119 1
43 117 61 118 1 236 21 235 49 243 42 239 7 244 1
371 61 18 69 47 121 16 122 1 123 34
248 120 16 122 7 123 17 127 10
385 69 4 120 1 121 7 124 6 127 2
90 120 34 121 17 133 67 127 12
418 65 30 69 24 122 6 125 6 126 1 127 32
112 64 1 65 10 67 38 124 6 128 28 126 16 130 24
76 124 1 125 16 133 7 134 34 138 19 127 41 130 7
589 121 10 122 2 123 12 124 32 126 41 133 6
41 64 24 125 28 129 18 130 17
14 64 32 128 18 131 32 130 2 132 16
110 125 24 126 7 128 17 129 2 138 37 132 23
48 58 1 64 13 129 32 144 27 132 15
9 129 16 130 23 131 15 144 18 138 1 142 20
81 123 67 126 7 127 6 134 2 135 12 136 66
58 126 34 133 2 137 1 138 17 139 8 136 1 140 33
107 133 12 136 64 140 5 153 72 150 35
130 133 66 134 1 135 64 140 25
34 134 1 138 32 141 8 139 13 142 11 143 23
330 126 19 130 37 132 1 134 17 137 32 142 1
106 134 8 137 13 149 24 141 9 140 30 150 3
117 134 33 135 5 136 25 139 30 150 13
55 137 8 139 9 148 6 149 16 159 18 143 2 152 1
61 132 20 137 11 138 1 144 17 155 19 146 12 159 4 143 23
102 137 23 141 2 142 23 159 20
433 131 27 132 18 142 17 145 2 146 21 147 14
431 144 2 156 14 146 20 147 40 157 5 161 20
496 142 12 144 21 145 20 155 24 156 25
140 144 14 145 40 161 16
255 141 6 149 25 150 16 151 28 152 9
179 139 24 141 16 148 25 150 5
99 135 35 139 3 140 13 148 16 149 5 153 14 151 11 165 11 168 28
142 148 28 150 11 166 32 160 7 152 8 168 3
121 141 1 148 9 151 8 155 8 159 24 160 28
171 135 72 150 14 162 67 163 17 165 19
480 155 4 156 15 157 17 158 14
747 142 19 146 24 152 8 154 4 156 2 159 11 160 2 158 20
481 145 14 146 25 154 15 155 2 157 16
835 145 5 154 17 156 16 178 31 161 7 158 1
107 154 14 155 20 157 1 160 10 178 19 174 31
57 141 18 142 4 143 20 152 24 155 11
142 151 7 152 28 155 2 158 10 166 5 171 6 172 8 174 14 167 1
334 145 20 147 16 157 7 180 29 176 7 178 9
61 153 67 163 63 164 3 165 13
198 153 17 162 63 188 11 164 20 189 39
129 162 3 163 20 188 11 183 15 165 17
69 150 11 153 19 162 13 164 17 182 17 183 9 168 20
455 151 32 160 5 167 18 168 10 169 4 170 17
202 160 1 166 18 171 25 190 1 173 9 169 21 192 1
208 150 28 151 3 165 20 166 10 182 13 185 14 170 17
44 166 4 167 21 190 22 170 15
111 166 17 168 17 169 15 190 6 185 11
772 160 6 167 25 172 13 173 16
179 160 8 171 13 175 10 174 40 173 37
538 167 9 171 16 172 37 175 13 179 3 193 8 197 23 192 15
147 158 31 160 14 172 40 175 4 178 9
72 172 10 173 13 174 4 176 29 177 15 178 7 179 38
420 161 7 175 29 180 12 177 12 178 39
74 175 15 176 12 180 18 179 21 181 15
152 157 31 158 19 161 9 174 9 175 7 176 39
190 173 3 175 38 177 21 181 4 193 23 194 47
217 161 29 176 12 177 18 181 31
553 177 15 179 4 180 31 195 24 194 11 196 9
155 165 17 168 13 183 12 184 2 185 21 186 6 187 21
615 164 15 165 9 182 12 188 24 187 8
73 182 2 190 4 185 17 191 16 186 21 192 14
149 168 14 170 11 182 21 184 17 190 11
52 182 6 184 21 212 12 191 10 187 23 206 2
334 182 21 183 8 186 23 188 6 205 10 189 12 206 26
479 163 11 164 11 183 24 187 6 189 38
245 163 39 187 12 188 38 205 78
286 167 1 169 22 170 6 184 4 185 11 192 27
156 184 16 186 10 212 20 210 1 214 22 192 8 211 6
220 167 1 173 15 184 14 190 27 191 8 214 1 197 31
57 173 8 179 23 198 2 200 2 208 20 197 28 202 47
119 179 47 181 11 195 32
183 181 24 194 32 215 31 196 8
78 181 9 195 8 215 38 216 33
540 173 23 192 31 193 28 214 18 208 15
290 193 2 199 2 200 12 201 1 202 1 203 14 204 1
761 198 2 200 1 209 4 210 5 201 4 211 1
503 193 2 198 12 199 1 209 8 208 4
596 198 1 199 4 219 2 227 2 221 1 228 3 211 1 204 3
71 94 32 193 47 198 1 217 6 219 1 203 10 222 9
1056 198 14 202 10 219 12 204 5
39 198 1 201 3 203 5 219 4
218 99 3 101 48 187 10 189 78 206 5 207 31
200 99 30 186 2 187 26 205 5 212 15 225 19 213 8
1025 99 24 100 14 101 23 205 31
381 193 20 197 15 200 4 209 11 214 5
610 199 4 200 8 208 11 210 3 214 4
387 191 1 199 5 209 3 214 16 211 17
1127 191 6 199 1 201 1 210 17 212 1 225 1 227 17 213 8 226 2 223 3
372 186 12 191 20 206 15 211 1 213 23
613 206 8 211 8 212 23 225 24
222 191 22 192 1 197 18 208 5 209 4 210 16
283 195 31 196 38
125 196 33
946 202 6 218 9 219 15 220 7 221 1 222 18
906 217 9 220 1 223 10 224 12 222 2
740 201 2 202 1 203 12 204 4 217 15 221 5
819 217 7 218 1 227 9 221 7 228 1 223 14
287 201 1 217 1 219 5 220 7 228 5
296 94 20 98 28 202 9 217 18 218 2 224 4
1022 92 5 93 4 211 3 218 10 220 14 227 2 226 17 224 1
1073 93 11 98 4 218 12 222 4 223 1
266 99 1 102 26 206 19 211 1 213 24 226 19
103 92 14 97 3 102 11 211 2 223 17 225 19
566 201 2 211 17 220 9 223 2 228 6
760 201 3 220 1 221 5 227 6
26 230 33 231 56
385 229 33 232 37 233 25 234 25 231 16
159 229 56 230 16 232 23 263 37
265 230 37 231 23 233 35
200 230 25 232 35 234 30
321 230 25 233 30
272 118 49 119 49 236 10 240 25 242 13
127 119 21 235 10 237 2 238 6 239 12 240 19
470 236 2 241 6 238 8 239 9
611 236 6 237 8 245 10 241 3 240 18 247 14
1006 119 7 236 12 237 9 241 1 243 20
311 235 25 236 19 238 18 247 1 250 9 242 22
540 237 6 238 3 239 1 245 6 246 3 243 1
87 235 13 240 22 250 24 258 23
682 119 42 239 20 241 1 246 20 248 35 244 4
268 119 1 243 4 252 7 253 47 255 15 248 10 256 42
860 238 10 241 6 246 12 247 12 248 15 249 9
661 241 3 243 20 245 12 248 13
71 238 14 240 1 245 12 250 27 249 13 251 13
286 243 35 244 10 245 15 246 13 255 36 257 17 249 8
66 245 9 247 13 248 8 253 1 254 23 257 8 256 26 251 33 263 5
16 240 9 242 24 247 27 258 13 251 10
49 247 13 249 33 250 10 259 13 258 19 260 20 263 10
641 244 7 253 23 254 5 255 28
313 244 47 249 1 252 23 254 25 256 20
187 249 23 252 5 253 25 255 2 257 12
402 244 15 248 36 252 28 254 2 257 7
23 244 42 249 26 253 20 263 59
633 248 17 249 8 254 12 255 7
183 242 23 250 13 251 19 259 29
168 251 13 258 29 260 5 261 1 262 34
58 251 20 259 5 261 15 262 24 263 44
31 259 1 260 15 262 28
85 259 34 260 24 261 28
182 231 37 249 5 251 10 256 59 260 44
