156 436 11
665 2 712 3 93 4 1116
713 1 712 34 128 26 135 3 37 35 4 36 28
676 1 93 2 37 35 35 136 40 4 57
567 1 1116 3 57 104 1132 136 98
172 6 1 7 48 8 25 9 1 10 18 11 55
101 5 1 14 20 15 8 17 1 18 5 7 55 32 26 8 51
36 5 48 6 55
246 5 25 6 51 32 26 9 32
549 5 1 8 32 122 17 123 38 32 24 10 9 11 42
266 5 18 9 9 141 25 143 55 123 39 11 51
258 5 55 9 42 10 51
956 13 8 14 8 15 36 16 23 17 19 18 33
618 12 8 19 49 16 78 18 1 20 71
1283 6 20 12 8 15 52 17 59
1205 6 8 12 36 14 52 16 21 32 67 33 21
939 12 23 13 78 15 21 19 34 31 68 39 27 33 50
376 6 1 12 19 14 59 18 73
1010 6 5 12 33 13 1 17 73 20 46 40 1 41 109
524 13 49 16 34 22 44 28 39 24 1 20 49 29 67 30 21 31 12
853 13 71 18 46 19 49 29 3 42 21 43 35 41 53
1014 22 3 23 2 24 8 25 12 26 5 27 1
636 19 44 21 3 24 59 29 44 25 20
801 21 2 28 40 26 37 27 36
731 19 1 21 8 22 59 28 7 27 57
867 21 12 22 20 29 11 43 42 26 54
123 2 135 21 5 23 37 25 54 28 24 34 11 43 115 37 26
713 21 1 23 36 24 57 28 28
806 19 39 23 40 24 7 26 24 27 28 34 75 37 59 38 6 30 23
493 19 67 20 3 22 44 25 11 43 76
735 19 21 28 23 139 28 38 89 144 12 103 8 31 111
805 16 68 19 12 30 111 139 33 39 18 138 36
1027 6 26 8 26 9 24 15 67 145 41 122 23 33 1
612 15 21 16 50 32 1 145 45 146 6 39 35
633 2 128 26 11 28 75 37 82 38 77 36 57
638 2 4 3 35 97 64 98 26 104 24 136 45 102 25 36 10
477 2 28 34 57 35 10 97 71 99 85 100 2 38 53 103 1
676 26 26 28 59 34 82
814 28 6 30 89 34 77 36 53 144 36 103 83
1054 16 27 31 18 33 35 146 8 138 19 152 8 154 31
412 18 1 49 34 51 57 41 107
832 18 109 20 53 40 107 42 35 44 14 51 25
602 20 21 41 35 43 69 44 10 45 54 46 57 47 31
793 20 35 25 42 26 115 29 76 42 69 46 74 48 10
635 41 14 42 10 49 24 50 50 51 29 47 26 52 62
253 42 54 46 1 47 40 53 36 48 16
830 42 57 43 74 45 1 48 97
310 42 31 44 26 45 40 53 32
602 43 10 45 16 46 97 53 27
492 40 34 44 24 50 4 51 16 52 26
523 44 50 49 4 51 50
596 40 57 41 25 44 29 49 16 50 50
327 44 62 49 26
518 45 36 47 32 48 27
576 55 28 56 82 57 67 58 28 59 87 60 55
501 54 28 66 34 67 7 59 9 60 11
233 54 82 61 57 57 89 64 10 78 45 60 5
213 54 67 56 89 80 59 78 10 81 212
583 54 28 114 115 117 81 59 6 108 16
621 54 87 55 9 58 6 117 11 112 6 67 60
455 54 55 55 11 56 5 61 38 89 21 90 57 65 35 66 19
212 56 57 60 38 62 37 63 16 64 8 65 51
77 61 37 68 20 70 49 76 58 63 11 65 26
528 61 16 62 11 76 46 64 18 80 27 78 38
79 56 10 61 8 63 18 78 10
266 60 35 61 51 62 26 68 26 109 41 90 33 72 11
684 55 34 60 19 89 7 92 37 113 13 118 4 67 3
548 55 7 59 60 66 3 112 44 118 19
260 62 20 65 26 69 2 70 29 71 1 72 8 73 45 74 49
199 68 2 70 123 71 116 75 25
385 62 49 68 29 69 123 76 37 77 84 75 25
339 68 1 69 116 79 38 75 6 74 101
636 65 11 68 8 109 65 73 81 103 47 110 9
555 68 45 72 81 99 62 74 63 103 72
1210 68 49 71 101 73 63 99 28 79 16
350 69 25 70 25 71 6 85 60 77 224 88 52 79 163 104 1330
578 62 58 63 46 70 37 86 29 80 8 77 60
409 70 84 75 224 76 60 82 28 86 177 84 81 85 36
199 56 45 57 10 63 38 64 10 80 9
409 71 38 74 16 75 163 97 26 99 92 101 63 104 30
604 57 59 63 27 76 8 78 9 86 91 81 69
156 57 212 80 69 86 70 84 370
942 77 28 83 9 84 219 85 235
650 82 9 84 12 85 6 87 27
974 77 81 81 370 82 219 83 12 86 35 87 188
367 75 60 77 36 82 235 83 6 87 45 88 255
399 76 29 77 177 80 91 81 70 84 35
967 83 27 84 188 85 45 88 183
533 75 52 85 255 87 183
522 60 21 66 7 90 10 91 14 92 30 93 12 94 11 95 55 96 56
252 60 57 65 33 89 10 109 30 95 35 110 19
586 89 14 105 7 106 13 92 25 94 16
502 66 37 89 30 91 25 106 16 111 4 112 17 113 5
435 89 12 119 19 120 32 141 10 121 49 95 19 142 7 96 55
472 89 11 91 16 105 44 108 1 116 7 142 34 96 18
326 89 55 90 35 93 19 120 2 140 66 110 17
738 89 56 93 55 94 18 142 55
658 35 64 36 71 79 26 98 2 99 25 100 3 101 18
517 35 26 97 2 101 40 102 15
696 36 85 73 62 74 28 79 92 97 25 100 1 103 10
387 36 2 97 3 99 1
924 79 63 97 18 98 40 104 57 102 9
850 35 25 98 15 101 9 104 6
976 30 8 36 1 38 83 72 47 73 72 99 10 139 16 144 42 110 9
206 4 1132 35 24 75 1330 79 30 101 57 102 6 136 91
653 91 7 94 44 106 1 107 18 108 27
687 91 13 92 16 105 1 107 23 111 1
505 105 18 106 23 111 26 108 1
277 58 16 94 1 105 27 107 1 114 25 111 19 117 6 116 10
701 65 41 72 65 90 30 110 59
313 72 9 90 19 95 17 103 9 109 59 139 50 140 11
386 92 4 106 1 107 26 108 19 117 26 112 16
555 59 6 67 44 92 17 111 16 117 50 113 13 118 16
785 66 13 92 5 112 13 118 4
237 58 115 108 25 115 39 116 4
754 114 39 141 50 116 62 143 5
54 94 7 108 10 114 4 115 62 141 15 142 55
699 58 81 59 11 108 6 111 26 112 50
307 66 4 67 19 112 16 113 4
1021 93 19 120 16 121 36 122 18 123 13 124 23
1237 93 32 95 2 119 16 137 26 127 4 139 9 140 17 138 24 124 15
620 93 49 119 36 141 11 123 23
360 9 17 32 23 119 18 145 17 146 4 123 49 124 8 153 29
600 9 38 10 39 119 13 121 23 122 49 141 40
760 119 23 120 15 122 8 127 7 153 22 129 6
805 126 1 127 6 128 2 129 6
690 125 1 127 2 134 2 128 3 132 5 135 4
674 120 4 124 7 125 6 126 2 137 4 134 4 129 1
773 125 2 126 3 153 2 151 1 155 4 156 3 132 1 129 5 133 1
782 124 6 125 6 127 1 128 5 153 4
645 131 4 132 3 133 2
974 130 4 152 1 156 3 154 8 132 2 133 1
758 126 5 128 1 130 3 131 2 138 2 154 4 135 5 133 4
755 128 1 130 2 131 1 132 4 156 4
1330 126 2 127 4 137 7 138 1 135 6
987 126 4 132 5 134 6 138 7
763 3 40 4 98 35 45 104 91
908 120 26 127 4 134 7 138 20
987 31 36 39 19 120 24 132 2 134 1 135 7 137 20 139 29 154 25
667 30 28 31 33 103 16 110 50 120 9 138 29 140 58
391 95 66 110 11 120 17 139 58
771 10 25 93 10 115 50 116 15 121 11 123 40 142 28 143 70
241 93 7 94 34 96 55 116 55 141 28
173 10 55 115 5 141 70
838 30 12 38 36 103 42
754 32 41 33 45 122 17 146 29
696 33 6 39 8 122 4 145 29 147 1 148 28 153 1 152 1
923 146 1 148 4 149 4 150 1 151 1 152 8
974 146 28 147 4 149 12 150 1 153 13
783 147 4 148 12 150 12
660 147 1 148 1 149 12 153 7 151 2 155 7
843 128 1 147 1 150 2 152 2 155 5 156 4
875 39 8 131 1 146 1 147 8 151 2 156 4 154 2
1177 122 29 124 22 128 2 129 4 146 1 148 13 150 7 155 5
938 39 31 131 8 132 4 138 25 152 2
527 128 4 150 7 151 5 153 5
942 128 3 131 3 133 4 151 4 152 4
