266 740 11
218 2 13 3 1 4 9 5 25 6 20
274 1 13 7 30 8 33 4 8
186 1 1 4 15 10 19 11 16 5 26 12 4
333 1 9 2 8 3 15 8 29 11 27
223 1 25 3 26 10 30 6 22
116 1 20 5 22
207 2 30 8 1 9 34
149 2 33 4 29 7 1 11 2 9 17 13 9
189 7 34 8 17 17 20 13 14 19 20
240 3 19 5 30 14 34 12 9
439 3 16 4 27 8 2 15 22 13 1 12 9
66 3 4 10 9 11 9 15 31 16 1 14 24 32 8 28 2
168 8 9 9 14 11 1 15 1 19 22 16 29 27 15 25 3
255 10 34 12 24 32 38
93 11 22 12 31 13 1 16 40
105 12 1 13 29 15 40 27 21 28 13
105 9 20 18 14 19 14 20 15
773 17 14 23 23 19 6 20 19 24 2
310 9 20 13 22 17 14 18 6 23 7 25 6
536 17 15 18 19 21 23 24 8 22 13
137 20 23 22 34
69 20 13 21 34 24 27 33 37 30 1
270 18 23 19 7 24 12 25 20 26 12
172 18 2 20 8 22 27 23 12 26 11 29 7 30 17
187 13 3 19 6 23 20 27 18 26 15 31 7
234 23 12 24 11 25 15 31 17 29 31
101 13 15 16 21 25 18 31 27 28 7
182 12 2 16 13 27 7 32 28 31 29 35 33 36 13 37 1
156 24 7 26 31 31 7 30 16 36 4 38 34
270 22 1 24 17 29 16 33 25 39 14 34 7 38 9
281 25 7 26 17 27 27 28 29 29 7 36 27
305 12 8 14 38 28 28 35 35
409 22 37 30 25 34 42
738 30 7 33 42 39 8 42 30 40 25
764 28 33 32 35 37 64
135 28 13 29 4 31 27 38 25 119 21 120 43 37 1
384 28 1 35 64 36 1 120 8 127 23 128 31 125 11 129 10
224 29 34 30 9 36 25 39 15 119 5 121 11 41 5
461 30 14 34 8 38 15 40 18 41 25
378 34 25 39 18 42 18 41 14 123 14
266 38 5 39 25 40 14 121 33 133 2 123 8 124 1 134 22
847 34 30 40 18 122 34 123 11
256 44 3 45 16 46 33 47 10 48 34 49 1
875 43 3 50 8 51 20 52 7 46 16 53 4 49 28
231 43 16 65 2 71 12 47 16 48 17 67 9 72 25 73 9
832 43 33 44 16 76 26 53 2 47 14 77 6
280 43 10 45 16 46 14 71 33 77 33 79 3
118 43 34 45 17 142 29 140 1 73 1 49 18
499 43 1 44 28 48 18 50 1 140 35 62 17
371 44 8 49 1 51 15 52 9 60 17 61 7 62 21 63 8
530 44 20 50 15 52 14
755 44 7 50 9 51 14 61 10 53 29 74 1
512 44 4 46 2 52 29 76 19 83 13 74 18
452 55 6 56 10 57 48 58 41 59 20
919 54 6 69 17 56 5 57 16 70 1 75 16
206 54 10 55 5 69 17 60 7 63 13 59 9
271 54 48 55 16 75 5 81 22 82 39
297 54 41 141 40 144 14 59 7
193 54 20 56 9 58 7 144 13 145 6 63 1
302 50 17 56 7 69 7 61 19 63 15
114 50 7 52 10 60 19 69 6 70 15 74 13
260 49 17 50 21 133 21 139 19 140 1 63 9
318 50 8 56 13 59 1 60 15 62 9 143 8 139 4 145 17
211 65 14 66 20 67 24 68 9
251 45 2 64 14 71 25 66 26 78 20 67 15
513 64 20 65 26 78 11 80 12
231 45 9 64 24 65 15 138 16 72 8 68 15
176 64 9 67 15 137 21 138 9
210 55 17 56 17 60 7 61 6 70 13
195 55 1 61 15 69 13 75 11 84 21 74 9
504 45 12 47 33 65 25 78 22 79 23
293 45 25 67 8 138 18 73 17
179 45 9 48 1 72 17 136 20 129 13 142 3 138 16
630 52 1 53 18 61 13 70 9 83 11 94 23 85 2 84 2 95 3
430 55 16 57 5 70 11 84 11 81 24 88 1
291 46 26 53 19 83 23 77 17
398 46 6 47 33 76 17 83 4 79 4 86 34
288 65 20 66 11 71 22 87 22 79 6 80 14
661 47 3 71 23 77 4 78 6 87 1 89 29 86 11 104 17 105 4 106 10
109 66 12 78 14 87 19 100 24 101 2 90 17
516 57 22 75 24 91 23 82 22 88 1
266 57 39 81 22 91 6 92 3 107 10
134 53 13 74 11 76 23 77 4 85 31 86 6
853 70 21 74 2 75 11 94 16 88 21
102 74 2 83 31 97 25 86 6 95 21
289 77 34 79 11 83 6 85 6 97 9 99 4 104 29
489 78 22 79 1 80 19 89 21 90 10
762 75 1 81 1 84 21 91 10 94 9 96 14 93 10 109 13
74 79 29 87 21 90 10 106 21
550 80 17 87 10 89 10 101 30 106 3
793 81 23 82 6 88 10 92 17 93 12
874 82 3 91 17 107 22 93 13 108 1
1083 88 10 91 12 92 13 108 7 109 17
512 74 23 84 16 88 9 95 16 96 8
376 74 3 85 21 94 16 97 6 98 4 110 11 114 2 96 16
858 88 14 94 8 95 16 114 19 115 4 109 11
678 85 25 86 9 95 6 98 16 99 19
277 95 4 97 16 110 14 99 5 111 20 112 3
479 86 4 97 19 98 5 116 2 104 13 111 1 117 17
126 80 24 101 13 102 22 103 4
411 80 2 90 30 100 13 106 2 113 17 103 16
551 100 22 103 17 184 17
39 100 4 101 16 102 17 113 19 227 10 228 5 229 16 184 4 230 4
276 79 17 86 29 99 13 116 22 105 8
484 79 4 104 8 116 25 117 1 106 9 210 2 211 20 212 13
350 79 10 89 21 90 3 101 2 105 9 218 21 113 10 212 13
605 82 10 92 22 108 21 118 3
418 92 1 93 7 107 21 109 6 208 17 118 14 209 13
946 88 13 93 17 96 11 108 6 215 1 115 2 208 20
473 95 11 98 14 114 13 115 5 112 13
110 98 20 99 1 213 16 117 1 214 9 112 4
340 98 3 110 13 111 4 115 1 214 12 223 7 216 10 220 4
225 101 17 103 19 106 10 218 16 227 1 226 12
637 95 2 96 19 110 13 115 16
767 96 4 109 2 110 5 112 1 114 16 215 20 216 4
202 99 2 104 22 105 25 117 13
736 99 17 105 1 111 1 116 13 213 13 210 11
559 107 3 108 14 209 31
564 36 21 38 5 120 5 121 26 124 19
843 36 43 37 8 119 5 125 47 126 1 124 14
578 38 11 41 33 119 26 124 19
307 42 34 130 35 131 1 123 15
153 40 14 41 8 42 11 122 15 130 11 134 32 135 12 143 1 139 1
329 41 1 119 19 120 14 121 19 133 21 126 31 140 3
966 37 11 120 47 126 8 136 18 129 30
183 120 1 124 31 125 8 136 8 142 25 140 31
227 37 23 128 20 132 10 129 29
408 37 31 127 20 132 30
347 37 10 73 13 125 30 127 29 132 6 136 16 138 5
128 122 35 123 11 131 36 135 5
251 122 1 130 36 135 12 141 33
230 127 10 128 30 129 6 137 33 138 9
484 41 2 62 21 124 21 134 28 139 6 140 18
166 41 22 123 32 133 28 139 21
443 123 12 130 5 131 12 143 23 141 21 144 4 145 1
554 73 20 125 18 126 8 129 16 142 30
231 68 21 132 33 138 10
105 67 16 68 9 72 18 73 16 129 5 132 9 137 10
277 62 19 63 4 123 1 133 6 134 21 143 30
748 48 1 49 35 62 1 124 3 126 31 133 18 142 1
192 58 40 131 33 135 21 144 5
238 48 29 73 3 126 25 136 30 140 1
116 63 8 123 1 135 23 139 30 145 16
718 58 14 59 13 135 4 141 5 145 19
261 59 6 63 17 135 1 143 16 144 19
436 147 23 148 17 149 26 150 3 151 32
121 146 23 148 22 149 1 166 20 167 15 168 5 169 18
157 146 17 147 22 150 15 168 2 170 16
202 146 26 147 1 174 29 175 37 151 1 176 1 167 16
193 146 3 148 15 163 6 164 15 165 14 151 10 168 7 170 9 173 1
79 146 32 149 1 150 10 165 17 193 7 175 11 195 26
137 153 23 154 3 155 11
213 152 23 156 5 158 24 154 1 162 30
100 152 3 153 1 158 24 155 55 160 97
127 152 11 154 55
86 153 5 157 6 158 17 159 20 160 5 161 23 162 20
281 156 6 163 31 164 5 159 33 161 3 171 5
455 153 24 154 24 156 17 160 26
320 156 20 157 33 163 9 165 9 160 41
287 154 97 156 5 158 26 159 41 165 23 194 1 199 85
93 156 23 157 3 261 27 162 12 171 41
375 153 30 156 20 161 12 261 34
230 150 6 157 31 159 9 164 29 165 26
219 150 15 157 5 163 29 172 4 173 19 171 12
246 150 14 151 17 159 9 160 23 163 26 193 46 194 11
249 147 20 259 25 265 10 247 19 263 13 168 2 266 5 169 19
250 147 15 149 16 174 14 192 24 262 7 169 31
138 147 5 148 2 150 7 166 2 170 21 173 16 266 16
267 147 18 166 19 167 31 265 15 262 20
179 148 16 150 9 168 21
281 157 5 161 41 164 12 250 1 261 1 172 28 260 19
272 164 4 171 28 263 5 260 7 264 10 173 11 266 9
218 150 1 164 19 168 16 172 11 266 16
553 149 29 167 14 180 15 176 21 192 24
162 149 37 151 11 176 15 197 20 198 20 195 5
355 149 1 174 21 175 15 190 33 180 4 191 12 197 33 200 8 196 4
284 178 177 179 124 180 12 181 288 182 27
443 177 177 179 40 181 22 183 16 184 10 185 6 186 52 187 47
380 177 124 178 40 180 26 186 54 188 11 189 46
461 174 15 176 4 177 12 179 26 190 8 182 18 188 6 192 23
338 177 288 178 22 182 6 191 26 196 315
292 177 27 180 18 181 6 190 29 191 1
391 178 16 229 21 184 13 230 15 185 34
279 102 17 103 4 178 10 183 13 229 28
682 178 6 183 34 240 8 230 4 241 21 187 24
319 178 52 179 54 258 20 187 41 189 43
170 178 47 185 24 186 41 254 15 241 5 258 3
396 179 11 180 6 256 8 257 16 189 18 192 30 262 18
190 179 46 186 43 188 18 257 7 258 3
525 176 33 180 8 182 29 191 30
649 176 12 181 26 182 1 190 30 196 28
919 167 24 174 24 180 23 188 30 262 1
298 151 7 165 46 194 43 195 10
311 160 1 165 11 193 43 201 11 195 9 199 49
76 151 26 175 5 193 10 194 9 201 14 198 26
818 176 4 181 315 191 28 200 10 203 73 206 610
161 175 20 176 33 198 10 200 39
151 175 20 195 26 197 10 201 5 200 25 202 29
148 160 85 194 49 201 17 202 6 204 126
791 176 8 196 10 197 39 198 25 202 1 203 53
121 194 11 195 14 198 5 199 17 202 24
70 198 29 199 6 200 1 201 24 203 4 204 32 205 12
248 196 73 200 53 202 4 206 86 205 2 207 8
270 199 126 202 32 205 183
115 202 12 203 2 204 183 207 287
201 196 610 203 86 207 465
82 203 8 205 287 206 465
642 108 17 109 20 215 10 217 22 209 15
495 108 13 118 31 208 15 217 7 239 32
330 105 2 117 11 213 19 214 1 211 13 219 8 221 1 222 16
166 105 20 210 13 212 12 222 16
917 105 13 106 13 211 12 218 18 233 15 225 6 235 6 222 20
248 111 16 117 13 210 19 214 18
167 111 9 112 12 210 1 213 18 219 11 220 17
277 109 1 115 20 208 10 216 11 217 11
263 112 10 115 4 215 11 223 11 217 5
526 208 22 209 7 215 11 216 5 223 12 224 4 239 5 237 18
307 106 21 113 16 212 18 225 1 226 14
275 210 8 214 11 220 16 221 18 231 15 232 5
105 112 4 214 17 219 16 223 9 224 14 232 2
366 210 1 219 18 231 20 222 22 251 1 252 13 246 18
277 210 16 211 16 212 20 221 22 235 13 246 9
337 112 7 216 11 217 12 220 9 224 13
138 217 4 220 14 223 13 237 19 232 13
570 212 6 218 1 233 22 226 20 238 6 236 9
921 113 12 218 14 225 20 227 13 238 4
631 103 10 113 1 226 13 228 14 238 5
944 103 5 227 14 238 6 236 11 230 16
267 103 16 183 21 184 28 230 17
306 103 4 183 15 185 4 228 16 229 17 240 13 236 9
290 219 15 221 20 251 13 232 23
263 219 5 220 2 224 13 231 23 237 18 251 16 250 20
265 212 15 225 22 234 13 235 31 236 6
191 233 13 240 16 235 8 236 13 243 2 244 1 245 22
488 212 6 222 13 233 31 234 8 246 21 247 20 245 9
329 225 9 228 11 230 9 233 6 234 13 238 2 240 10
462 217 18 224 19 232 18 248 25 239 7 250 5
447 225 6 226 4 227 5 228 6 236 2
351 209 32 217 5 237 7 248 15 249 29
240 185 8 230 13 234 16 236 10 241 1 242 10 243 10
77 185 21 187 5 240 1 253 9 254 12 242 16
195 240 10 241 16 253 9 255 3 243 13
206 234 2 240 10 242 13 255 4 244 12
106 234 1 243 12 255 11 245 14
310 234 22 235 9 244 14 255 9 256 4 265 21 247 15 262 2
172 221 18 222 9 235 21 252 26 247 19
573 166 19 235 20 245 15 246 19 252 12 259 7 265 24
1134 237 25 239 15 249 20 250 26
342 239 29 248 20 250 13 261 1
190 171 1 232 20 237 5 248 26 249 13 251 2 261 41 260 33
286 221 1 231 13 232 16 250 2 252 27 259 19 260 27
702 221 13 246 26 247 12 251 27 259 9
188 241 9 242 9 254 7 255 1 256 13 257 8
205 187 15 241 12 253 7 257 5 258 15
164 242 3 243 4 244 11 245 9 253 1 256 17
62 188 8 245 4 253 13 255 17 257 17 262 19
171 188 16 189 7 253 8 254 5 256 17 258 15
82 186 20 187 3 189 3 254 15 257 15
201 166 25 247 7 251 19 252 9 263 3 260 10 264 17
740 171 19 172 7 250 33 251 27 259 10 264 17
257 161 27 162 34 171 1 249 1 250 41
294 167 7 169 20 188 18 192 1 245 2 256 19 265 29
239 166 13 172 5 259 3 264 21 266 23
246 172 10 259 17 260 17 263 21
379 166 10 169 15 245 21 247 24 262 29
169 166 5 168 16 172 9 173 16 263 23
