301 826 11
339 2 105 3 139
122 1 105
173 1 139 4 74 5 51 8 56
492 3 74 5 36 6 1 7 62 8 60
54 3 51 4 36 9 55 7 1 10 41
196 4 1 171 35 175 29 7 38 172 6 8 20 173 23 176 10
196 4 62 5 1 6 38 175 26 178 9 10 35
68 3 56 4 60 6 20 163 2 172 78
89 5 55 10 22 11 96
80 5 41 7 35 9 22 177 15 178 18 11 26
99 9 96 10 26 177 41 179 1 182 69 183 38
79 13 40 14 56
34 12 40 53 17 14 9
74 12 56 13 9 15 23 53 11 17 3 71 29 19 34
89 14 23 16 43 17 8 18 31 19 35 20 2
241 15 43 21 13 17 10 62 25 24 37 18 13
72 14 3 15 8 16 10 71 46 62 32 73 2 86 26
84 15 31 16 13 21 9 26 25 20 20
507 14 34 15 35 20 39
106 15 2 18 20 19 39 26 34
308 16 13 18 9 22 15 23 24 24 5 25 14 26 21 27 24
171 21 15 36 26 39 24 37 27 23 31 27 1
243 21 24 22 31 39 4 58 16 24 28
148 16 37 21 5 23 28 76 7 77 13 58 16 62 11
199 21 14 209 24 213 22 26 42 27 25
340 18 25 20 34 21 21 25 42
342 21 24 22 1 25 25 36 38 47 12 213 28
257 29 4 30 20 31 23 32 35 33 23 34 32
308 28 4 40 7 43 45 31 7 45 14 33 48
84 28 20 35 16 37 13 67 10 31 22 63 26 32 23
434 28 23 29 7 30 22 43 7 67 35 61 40 69 1 83 7
105 28 35 30 23 35 18 34 14 38 43
484 28 23 29 48 45 16 34 34
227 28 32 32 14 33 34 204 14 205 32 207 5 45 23 38 26
193 30 16 32 18 36 35 37 36 38 11
111 22 26 27 38 35 35 37 2 46 26 47 1 38 5
93 22 27 30 13 35 36 36 2 39 2 57 11 63 29
206 32 43 34 26 35 11 36 5 46 13 218 47 207 18
343 22 24 23 4 37 2 57 36 58 29 59 2
272 29 7 41 31 42 5 43 25 44 36 45 28
193 40 31 49 1 42 21 55 35 54 4 51 23 56 13 44 3
321 40 5 41 21 43 39 60 19 61 4 56 28
380 29 45 31 7 40 25 42 39 61 23
163 40 36 41 3 55 12 216 23 217 14 45 7 66 27
114 29 14 33 16 34 23 40 28 44 7 204 27 217 32
149 36 26 38 13 218 2 47 25 219 13
280 27 12 36 1 46 25 206 40 218 32 213 28 219 5 207 6
272 49 24 50 34 51 17 52 9
979 41 1 48 24 54 40 51 18 52 2
303 48 34 55 23 84 53 51 14 52 20
1052 41 23 48 17 49 18 50 14 55 7
414 48 9 49 2 50 20 54 9 84 8 81 37 85 1 109 36 100 30
970 13 17 14 11 71 35 72 33 73 11
676 41 4 49 40 52 9 56 38 81 21
340 41 35 44 12 50 23 51 7 64 26 65 13 66 20
711 41 13 42 28 54 38 60 17 74 8 81 3
66 37 11 39 36 82 27 63 7 59 17
229 23 16 24 16 39 29 76 28 59 10
76 39 2 57 17 58 10 76 5 82 25 78 20 88 18 87 8
208 42 19 56 17 61 25 74 30 75 8
61 31 40 42 4 43 23 60 25 83 10 75 17
233 16 25 17 32 24 11 77 24 86 5 80 15
113 30 26 37 29 57 7 67 15 82 23 68 27
71 55 26 65 42 220 21
290 55 13 64 42 66 50 220 31 215 2
158 44 27 55 20 65 50 216 34 214 7 215 2
38 30 10 31 35 63 15 68 28 69 25 70 5
259 63 27 67 28 82 22 70 31 87 21 95 1
45 31 1 67 25 83 34 89 13 70 30
24 67 5 68 31 69 30 89 14 95 46
241 14 29 17 46 53 35 73 14
92 53 33 73 1 91 25 92 15 93 7 94 13
148 17 2 53 11 71 14 72 1 86 8 92 23 96 25
138 56 8 60 30 75 28 81 37 89 1 90 6
83 60 8 61 17 74 28 83 27 89 18
192 24 7 58 28 59 5 77 28 78 23 79 14
195 24 13 62 24 76 28 79 7 80 16
139 59 20 76 23 79 17 88 28 97 12
134 76 14 77 7 78 17 80 20 117 26 97 11
389 62 15 77 16 79 20 86 24 98 5 117 7
265 52 37 54 21 56 3 74 37 90 38 100 20 101 1
155 57 27 59 25 63 23 68 22 87 19
21 31 7 61 10 69 34 75 27 89 15
329 50 53 52 8 85 56
92 52 1 84 56 108 52 109 3
185 17 26 62 5 73 8 80 24 98 6 96 22
175 59 8 68 21 82 19 88 34 95 37 126 36 127 3 118 1
239 59 18 78 28 87 34 97 30 118 19
78 69 13 70 14 74 1 75 18 83 15 90 24 95 1 106 34 107 1
280 74 6 81 38 89 24 106 29 101 45
73 72 25 93 1 99 21
257 72 15 73 23 102 22 96 1 104 4 94 26
99 72 7 91 1 99 28 94 17 115 5 119 19
132 72 13 92 26 93 17 104 2 119 18 123 9
71 68 1 70 46 87 37 89 1 107 45 127 12
189 73 25 86 22 92 1 102 13 98 17 105 12
142 78 12 79 11 88 30 117 18 133 25 118 1 155 22
504 80 5 86 6 96 17 116 19 105 14 117 32
209 91 21 93 28 115 8
30 52 30 81 20 109 17 110 23 101 44 159 17
20 81 1 90 45 100 44 134 6 106 1 136 4 265 25 264 24 159 12
1379 92 22 96 13 103 6 104 26 105 16
652 102 6 104 20 105 4 123 2 121 4 124 16 125 12
1723 92 4 94 2 102 26 103 20 123 30
453 96 12 98 14 102 16 103 4 116 9 121 13
20 89 34 90 29 101 1 134 32 107 21
64 89 1 95 45 106 21 134 19 127 22 135 17 161 5
168 85 52 109 47 110 2 111 38
137 52 36 85 3 100 17 108 47 110 41
342 100 23 108 2 109 41 111 13
254 108 38 110 13
77 113 3 114 36 115 16
85 112 3 114 21 115 23 128 4 129 23 130 11
102 112 36 113 21 128 23
85 93 5 99 8 112 16 113 23 131 6 119 17 129 5
620 98 19 105 9 117 4 120 14 121 19 122 7
166 79 26 80 7 97 18 98 32 116 4 120 3 133 13
145 87 1 88 19 97 1 126 43 155 31 259 13 255 14
50 93 19 94 18 115 17 131 25 123 2
123 116 14 117 3 133 30 122 22 154 13
1118 103 4 105 13 116 19 149 1 142 11 143 1 150 4 125 8 122 3
823 116 7 120 22 121 3 141 4 142 11 147 17 154 14 158 4
324 94 9 103 2 104 30 119 2 131 8 124 1 132 19 151 2 152 6 153 13
531 103 16 123 1 149 10 125 8 146 7 152 14
1242 103 12 121 8 124 8 149 5
227 87 36 118 43 127 32 259 9 260 10
324 87 3 95 12 107 22 126 32 262 1 161 23 260 30
47 113 4 114 23 130 18 137 23
320 113 23 115 5 131 18 132 1 138 14 130 16 139 8
102 113 11 128 18 129 16 257 19 258 1 137 19 139 20
40 115 6 119 25 123 8 129 18 132 23
111 123 19 129 1 131 23 151 15 138 13
311 97 25 117 13 120 30 155 22 154 9
38 101 6 106 32 107 19 135 17 136 36
65 107 17 134 17 136 20 263 16 161 48
79 101 4 134 36 135 20 264 36 263 12
106 128 23 130 19 257 15 271 8
83 129 14 132 13 151 16 157 12 139 16
80 129 8 130 20 138 16 157 12 258 23 269 4
617 141 1 142 1 143 2
1067 122 4 140 1 142 12 143 1 144 1 145 12 146 2 147 4
985 121 11 122 11 140 1 141 12 143 8
626 121 1 140 2 141 1 142 8 150 7 144 4
346 141 1 143 4 148 1 150 3 146 3
1439 141 12 146 12 160 18 147 13
350 124 7 141 2 144 3 145 12 148 1 149 6 152 1 160 2
753 122 17 141 4 145 13 160 3 250 19 158 18 261 8
461 144 1 146 1 149 2 150 2
434 121 1 124 10 125 5 146 6 148 2 150 8
641 121 4 143 7 144 3 148 2 149 8
103 123 2 132 15 138 16 156 2 153 20 157 2
1170 123 6 124 14 146 1 160 24 153 22 250 7 251 6 252 15
133 123 13 151 20 152 22 156 10 252 10
148 120 13 122 14 133 9 254 17 155 6 158 21
102 97 22 118 31 133 22 154 6 253 11 254 8 255 16
53 151 2 153 10 157 21 252 21
155 138 12 139 12 151 2 156 21 269 4 270 16 252 1
380 122 4 147 18 154 21 254 15 261 24 256 16
48 100 17 101 12 265 5 266 40
864 145 18 146 2 147 3 152 24 250 20
34 107 5 127 23 135 48 263 2 262 39 280 2
472 163 61 164 48 165 7
583 8 2 162 61 172 59 165 10
114 162 48 165 26 180 38 181 1
537 162 7 163 10 164 26 171 23 172 12 174 20 181 26
563 167 7 168 4 169 3 170 1
391 166 7 171 3 173 20 169 2 170 12
287 166 4 174 1 169 4 170 4
507 166 3 167 2 168 4 171 7 174 7
373 166 1 167 12 168 4 173 8 174 15 191 17 181 10 185 4
525 6 35 165 23 167 3 169 7 172 28 173 10 174 11
88 6 6 8 78 163 59 165 12 171 28
692 6 23 167 20 170 8 171 10 176 12 184 17 185 8
814 165 20 168 1 169 7 170 15 171 11 181 1
54 6 29 7 26 178 27 176 25 179 3
117 6 10 173 12 175 25 184 32 179 25
54 10 15 11 41 178 29 179 28
161 7 9 10 18 175 27 177 29 179 12
162 11 1 175 3 176 25 177 28 178 12 184 14 186 9 192 6 182 35
127 164 38 181 29 189 30 190 15
140 164 1 165 26 170 10 174 1 180 29 191 28 190 14
222 11 69 179 35 198 19 192 14 199 32 202 16 183 26
86 11 38 182 26 202 52 206 30 211 45 212 25
105 173 17 176 32 179 14 186 20 185 1 187 9 188 27
120 170 4 173 8 184 1 191 45 196 2 197 13 190 1 188 49
42 179 9 184 20 192 41 193 20 194 4 187 46
481 184 9 186 46 196 40 193 3 188 36
61 184 27 185 49 187 36 196 11
167 180 30 190 16 195 31
85 180 15 181 14 185 1 189 16 191 26 197 40 195 24 208 1
290 170 17 181 28 185 45 190 26
170 179 6 182 14 186 41 198 20 194 18 201 10
313 186 20 187 3 196 7 194 31 205 44 207 16
199 186 4 192 18 193 31 202 16 201 23 207 20
105 189 31 190 24 208 36
455 185 2 187 40 188 11 193 7 197 28 203 20 204 32 205 22
160 185 13 190 40 196 28 203 41 208 13
633 182 19 192 20 199 15 200 3 201 2
475 182 32 198 15 200 10 202 11 201 23
229 198 3 199 10 201 13
706 192 10 194 23 198 2 199 23 200 13 202 27
255 182 16 183 52 194 16 199 11 201 27 206 36 207 35
229 196 20 197 41 208 12 204 23 214 40
89 34 14 45 27 196 32 203 23 205 44 217 40 214 1
367 34 32 193 44 196 22 204 44 207 39
220 47 40 183 30 202 36 212 31 213 19 207 18
146 34 5 38 18 47 6 193 16 194 20 202 35 205 39 206 18 218 15
179 190 1 195 36 197 13 203 12 214 25 215 23
27 25 24 210 36 211 13 212 19 213 29
32 209 36 211 59
38 183 45 209 13 210 59 212 34
38 183 25 206 31 209 19 211 34 213 12
354 25 22 27 28 47 28 206 19 209 29 212 12
403 66 7 203 40 204 1 208 25 216 41 217 16 215 31
67 65 2 66 2 208 23 214 31 220 47
70 44 23 66 34 214 41 217 29
101 44 14 45 32 204 40 214 16 216 29
122 38 47 46 2 47 32 207 15 219 16
419 46 13 47 5 218 16
102 64 21 65 31 215 47
299 222 37 223 6 224 25 225 8 226 26 227 12
60 221 37 228 65 229 3 226 34 230 13 227 27
294 221 6 231 23 224 17 232 1 227 34 233 1
120 221 25 223 17 225 23 232 19
604 221 8 224 23 235 12 236 14 226 8 232 7 242 6
153 221 26 222 34 225 8 235 15 239 45 229 20 238 4
292 221 12 222 27 223 34 230 6 291 38 233 19
137 222 65 229 8 234 53 230 26
143 222 3 226 20 228 8 239 32 243 46 240 24
85 222 13 227 6 228 26 286 32 234 21 291 1
134 223 23 232 43
102 223 1 224 19 225 7 231 43 242 21 245 6
67 223 1 227 19 297 28 291 22
30 228 53 230 21 286 26 280 62
608 225 12 226 15 236 5 237 4 238 13
130 225 14 235 5 237 3 238 6 242 6
553 235 4 236 3 238 7
324 226 4 235 13 236 6 237 7 239 9 241 15 242 19
203 226 45 229 32 238 9 240 29 241 13
63 229 24 239 29 243 2 241 7 244 21
272 238 15 239 13 240 7 242 22 245 27 244 45
174 225 6 232 21 236 6 238 19 241 22 245 27
108 229 46 240 2
229 240 21 241 45 245 3 246 16 247 30 249 17
87 232 6 241 27 242 27 244 3
93 244 16 247 24 248 3
146 244 30 246 24 301 28 248 5 249 6
383 246 3 247 5 301 27 249 15
81 244 17 247 6 248 15 301 22
515 147 19 152 7 160 20 261 19 251 26
649 152 6 250 26 261 14 252 7 274 25 279 34
95 152 15 153 10 156 21 157 1 251 7 270 9 279 19
155 155 11 254 26 255 25 256 18
185 154 17 155 8 158 15 253 26 256 11
131 118 14 155 16 253 25 259 22 268 19 256 3
302 158 16 253 18 254 11 255 3 261 22 268 8 281 24 287 26 275 2
21 130 19 137 15 258 28 271 32 272 5
19 130 1 139 23 257 28 269 27 272 1
538 118 13 126 9 255 22 267 20 268 15 260 21
102 126 10 127 30 259 21 267 13 262 27 277 4
732 147 8 158 24 250 19 251 14 256 22 274 12 275 33
111 127 1 161 39 260 27 277 40 280 12
23 135 16 136 12 161 2 265 13 264 14 266 57 280 79
112 101 24 136 36 263 14 265 31
30 101 25 159 5 263 13 264 31 266 45
27 159 40 263 57 265 45 280 4
118 259 20 260 13 268 14 276 30 277 23
26 255 19 256 8 259 15 267 14 276 7 281 28
38 139 4 157 4 258 27 270 23 272 13 278 5
325 157 16 252 9 269 23 279 10 278 22
88 137 8 257 32 272 19 273 12
176 257 5 258 1 269 13 271 19 278 25 273 30 289 23
404 271 12 272 30 289 6 292 3
70 251 25 261 12 279 6 282 25 275 37 283 12
481 256 2 261 33 274 37 287 14 298 14 283 3 296 36
24 267 30 268 7 277 1 281 11 284 33 285 11
80 260 4 262 40 267 23 276 1 286 15 284 17 280 32
46 269 5 270 22 272 25 279 9 289 6 288 28
975 251 34 252 19 270 10 274 6 278 9 282 8 288 23
104 161 2 234 62 262 12 263 79 266 4 277 32 286 19
49 256 24 268 28 276 11 287 11 285 28
328 274 25 279 8 293 25 288 15 283 25
289 274 12 275 3 282 25 293 15 298 30 299 12 300 10 294 5
94 276 33 277 17 286 38 285 12 290 20
223 276 11 281 28 284 12 287 22 290 20 295 10
52 230 32 234 26 277 15 280 19 284 38 290 19 291 5
71 256 26 275 14 281 11 285 22 295 8 296 30 297 24
65 278 28 279 23 282 15 293 14 289 18
314 272 23 273 6 278 6 288 18 293 23 292 41
52 284 20 285 20 286 19 295 22 291 31
77 227 38 230 1 233 22 286 5 290 31 295 16 297 4
122 273 3 289 41 293 6 294 10
902 282 25 283 15 288 14 289 23 292 6 294 19
101 283 5 292 10 293 19 300 28
209 285 10 287 8 290 22 291 16 297 26
91 275 36 287 30 298 27 297 26
138 233 28 287 24 291 4 295 26 296 26
162 275 14 283 30 296 27 299 25
76 283 12 298 25 300 20
192 283 10 294 28 299 20
71 247 28 248 27 249 22
