243 659 11
587 2 32 3 1 4 1 5 4 6 31 7 27
313 1 32 8 27 3 16 5 8 9 12 10 1 11 16 12 37
634 1 1 2 16 9 16 6 1
550 1 1 6 23 7 24 25 38 26 20 27 1
81 1 4 2 8 8 61 21 11 7 48 30 1
437 1 31 3 1 4 23 9 19 26 10
184 1 27 4 24 5 48 33 36 30 5 34 1 27 34
155 2 27 5 61 21 54 10 28
414 2 12 3 16 6 19 14 12 15 20 26 13 12 4
362 2 1 8 28 21 20 98 26 94 14 22 27 11 42
549 2 16 10 42 98 21 99 43 12 2
466 2 37 9 4 11 2 14 47 99 29 19 4 101 21
89 14 23 15 8 16 30 17 26 18 17 19 30 20 22
438 9 12 12 47 13 23 15 18 19 33
160 9 20 13 8 14 18 28 5 26 38 29 32 17 37
39 13 30 17 55 18 76 38 49
427 13 26 15 37 16 55 29 42 38 33
167 13 17 16 76 38 60 52 105 20 13 63 202
121 12 4 13 30 14 33 20 23 104 22 101 24
261 13 22 18 13 19 23 104 47 63 55
254 5 11 8 54 10 20 22 50 23 12 24 10
252 10 27 21 50 94 21 92 2 23 64
199 21 12 22 64 102 51 92 7 24 40
26 21 10 23 40 102 32 103 19
605 4 38 28 38 26 17 27 26
310 4 20 6 10 9 13 15 38 25 17 28 8
55 4 1 7 34 25 26 28 16 35 26 34 21 32 20
114 15 5 25 38 26 8 27 16 31 47 29 18 32 17
60 15 32 17 42 28 18 31 12 37 46 38 4
124 5 1 7 5 33 38
149 28 47 29 12 36 45 37 12 32 4
134 27 20 28 17 31 4 36 6 44 41
42 7 36 30 38 34 21
89 7 1 27 21 33 21 35 25
39 27 26 34 25
169 31 45 32 6 39 3 37 14 41 38 44 11
531 29 46 31 12 36 14 39 29 45 17 43 19 38 9
686 16 49 17 33 18 60 29 4 37 9 45 45 47 105 52 12
400 36 3 37 29 40 20 41 20 42 23 43 5
245 39 20 41 31 42 9 49 37 44 16 50 13
638 36 38 39 20 40 31 44 17
969 39 23 40 9 55 16 57 18 43 23 49 2
563 37 19 39 5 42 23 45 9 46 48 48 36 57 1
97 32 41 36 11 40 16 41 17 174 9 50 13 175 8
817 37 17 38 45 43 9 46 37 47 9
1011 43 48 45 37 47 30 48 4
425 38 105 45 9 46 30 51 93 48 3 52 22 53 18 54 3
489 43 36 46 4 47 3 57 9 62 27 54 23
414 40 37 42 2 55 10 75 27 76 2 59 1 50 28
250 40 13 44 13 49 28 75 19 174 39 178 26 183 16
409 47 93 52 76 53 47
805 18 105 38 12 47 22 51 76 69 21 53 5 63 102 70 25
512 47 18 51 47 52 5 72 44 69 9 73 1 54 11
448 47 3 48 23 53 11 62 13 73 49 65 10 180 7 177 6 182 4
1193 42 16 49 10 56 1 57 8 58 5 59 16
310 55 1 60 2 61 4 58 6 59 2
252 42 18 43 1 48 9 55 8 62 6 58 3
380 55 5 56 6 57 3 62 10 60 8
418 49 1 55 16 56 2 78 6 71 1 61 4 76 8
649 56 2 58 8 62 10 64 16 66 4 61 1
391 56 4 59 4 60 1 66 2 71 3
384 48 27 54 13 57 6 58 10 60 10 64 1 65 1
231 18 202 20 55 52 102 97 341 104 7
904 60 16 62 1 66 4 65 20 67 1 68 1
462 54 10 62 1 64 20 68 4 180 17
606 60 4 61 2 64 4 71 3 67 1
216 64 1 66 1 78 2 71 4 176 2 76 3 68 7
732 64 1 65 4 67 7 179 3 176 5 180 7
101 52 21 53 9 72 20 74 7 77 10 70 27
196 52 25 69 27 77 16
443 59 1 61 3 66 3 67 4 78 3
228 53 44 69 20 73 15 74 37
485 53 1 54 49 72 15 74 4 181 23 182 24
248 69 7 72 37 73 4 77 25 181 22
922 49 27 50 19 176 28 76 6 177 6 178 17
620 49 2 59 8 67 3 75 6 78 8 176 12
136 69 10 70 16 74 25 181 16 184 29
775 59 6 67 2 71 3 76 8
108 80 29 81 74
532 79 29 82 5 85 15 88 35 81 24
54 79 74 80 24 82 83 86 114 95 47 97 53
230 80 5 81 83 83 10 84 22 85 12 86 83
236 82 10 84 23 85 21 86 38 87 3
381 82 22 83 23 85 30
80 80 15 82 12 83 21 84 30 88 54 94 26 87 8
132 81 114 82 83 83 38 95 225 96 2 87 5
92 83 3 85 8 86 5 98 9 99 25 94 48 100 20 96 47
78 80 35 85 54 89 2 91 39 94 3 92 5
238 88 2 90 31 91 13 92 14 93 1
361 89 31 91 23 92 18
838 88 39 89 13 90 23 92 30
353 22 2 23 7 88 5 89 14 90 18 91 30 102 16 94 57 93 30
502 89 1 92 30 102 56 103 38
542 10 14 22 21 85 26 87 48 88 3 92 57 98 29
257 81 47 86 225 96 70 97 229
333 86 2 87 47 95 70 100 35 97 36 104 16
411 63 341 81 53 95 229 96 36 104 57
768 10 26 11 21 87 9 94 29 99 14
96 11 43 12 29 87 25 98 14 100 21 101 25
233 87 20 96 35 99 21 104 27 101 34
165 12 21 19 24 99 25 100 34 104 21
243 23 51 24 32 92 16 93 56 103 14
102 24 19 93 38 102 14
298 19 22 20 47 63 7 96 16 97 57 100 27 101 21
23 106 20 107 21 108 15 109 5
97 105 20 110 38 107 35 112 5 109 26 113 30
77 105 21 106 35 135 10 112 28 108 11
39 105 15 107 11 135 28 140 15
687 105 5 106 26 192 40 113 30
203 106 38 111 31 112 18 113 5 114 36 115 12
72 110 31 129 18 130 42 112 22 114 8
154 106 5 107 28 110 18 111 22 135 25 130 12 139 16 142 22
193 106 30 109 30 110 5 178 1 191 41 192 19 115 37
278 110 36 111 8 129 23 197 27 134 10 115 14
445 110 12 113 37 114 14 195 24 191 13 197 21
370 117 26 118 26 119 13 120 17
262 116 26 121 23 118 5 123 13 127 14 128 13 125 19 120 5
87 116 26 117 5 127 7 119 6
126 116 13 118 6 120 7
127 116 17 117 5 119 7 125 18
152 117 23 122 9 123 32 124 30 125 8 126 6
85 121 9 129 5 123 10 131 31 132 10 133 20 124 21 134 12
163 117 13 121 32 122 10 136 18 132 21 128 7 137 8
255 121 30 122 21 133 26 200 2 126 29
180 117 19 120 18 121 8 126 22
100 121 6 124 29 125 22 200 12
458 117 14 118 7 128 35 138 21
498 117 13 123 7 127 35 137 27 138 1 146 19
329 111 18 114 23 122 5 130 21 131 28 134 28
62 111 42 112 12 129 21 131 7 141 54 142 6
282 122 31 129 28 130 7 132 18 141 20 143 30
141 122 10 123 21 131 18 136 21 144 1 143 7 145 11
112 122 20 124 26 200 18 199 21 134 21
84 114 10 122 12 129 28 133 21 198 17 197 10 199 12
28 107 10 108 28 112 25 139 18 140 26
79 123 18 132 21 144 8 137 28
150 123 8 128 27 136 28 144 18 152 7 146 11 150 8
139 127 21 128 1 146 28
41 112 16 135 18 140 41 142 54
146 108 15 135 26 139 41 142 14
374 130 54 131 20 143 6 147 37 148 17 142 1 149 19
258 112 22 130 6 139 54 140 14 141 1 149 32 171 55
328 131 30 132 7 141 6 145 32 148 31
305 132 1 136 8 137 18 150 19 145 25 151 10
135 132 11 143 32 144 25 148 3 151 11 157 3
231 128 19 137 11 138 28 152 27 154 6
230 141 37 148 10 155 23 149 37 156 19
293 141 17 143 31 145 3 147 10 155 28 157 10
338 141 19 142 32 147 37 156 23 173 1 171 35
228 137 8 144 19 152 18 153 13 151 14
186 144 10 145 11 150 14 167 3 153 10 157 14 169 15
148 137 7 146 27 150 18 153 16 154 24
229 150 13 151 10 152 16 169 9 154 15 170 6
276 146 6 152 24 153 15 229 16 170 11 230 4
153 147 23 148 28 158 2 157 10 156 2 159 27
223 147 19 149 23 155 2 173 33 159 29 228 26
783 145 3 148 10 151 14 155 10 158 10 164 3 167 5 168 5
589 155 2 157 10 161 8 164 4 159 3 166 2
565 155 27 156 29 158 3 172 3 166 32 235 7 236 6 228 2
502 161 5 162 2 163 2 164 1 165 8 166 1
819 158 8 160 5 164 1 166 10
806 160 2 163 4 164 4
674 160 2 162 4 164 1 167 2 168 7 165 3
409 157 3 158 4 160 1 161 1 162 4 163 1 168 1
836 160 8 163 3 167 1 169 13 170 1 172 23 166 15
651 158 2 159 32 160 1 161 10 165 15 172 8
621 151 3 157 5 163 2 165 1 168 9 169 14
576 157 5 163 7 164 1 167 9
821 151 15 153 9 165 13 167 14 170 16
221 153 6 154 11 165 1 169 16 229 21 172 22 231 11
126 142 55 149 35 173 23 234 42
269 159 3 165 23 166 8 170 22 236 33 231 10
87 149 1 156 33 171 23 233 36 234 1 228 6
162 44 9 50 39 175 43 183 31
118 44 8 174 43 183 4 190 16
483 67 2 68 5 75 28 76 12 179 18 177 1
962 54 6 75 6 176 1 179 37 180 1 185 7 182 15 178 26 187 26
1111 50 26 75 17 113 1 177 26 183 17 187 24 191 56 192 1
834 68 3 176 18 177 37 180 23
748 54 7 65 17 68 7 177 1 179 23
90 73 23 74 22 77 16 185 1 188 28 182 18 186 9 184 4
112 54 4 73 24 177 15 181 18 185 32
72 50 16 174 31 175 4 178 17 193 33 190 7 191 12 194 7
239 77 29 181 4 188 29 189 3
371 177 7 181 1 182 32 186 26 187 16
134 181 9 185 26 188 9 187 16 192 12 189 14
589 177 26 178 24 185 16 186 16 192 46
119 181 28 184 29 186 9 189 38
205 184 3 186 14 188 38
83 175 16 183 7 193 32
273 113 41 115 13 178 56 183 12 195 26 194 2
433 109 40 113 19 178 1 186 12 187 46
122 183 33 190 32 194 43
90 183 7 191 2 193 43 195 39 196 33
222 115 24 191 26 194 39 196 4 197 22
82 194 33 195 4 198 24 197 1 200 18 199 13
62 114 27 115 21 134 10 195 22 196 1 198 28
67 134 17 196 24 197 28 199 16
92 133 21 134 12 196 13 198 16 200 18
54 124 2 126 12 133 18 196 18 199 18
123 202 21 203 16 204 12 205 13
118 201 21 206 12 213 21 204 2 209 1 211 28 214 2 205 21
94 201 16 204 26 217 11 205 12
242 201 12 202 2 203 26 213 27 217 7
139 201 13 202 21 203 12 214 24
405 202 12 207 17 208 14 209 11 210 18 211 25 212 21
259 206 17 208 38 209 22 215 30 216 20
110 206 14 207 38 218 31 215 1 220 5 219 3 212 26
224 202 1 206 11 207 22 213 32 217 13 216 15 221 10 222 14
136 206 18 239 12 235 16 238 6 211 17 212 7
452 202 28 206 25 210 17 238 28 214 1
244 206 21 208 26 210 7 239 1 240 11 220 27
147 202 21 204 27 209 32 217 21
141 202 2 205 24 211 1 237 27 238 4
201 207 30 208 1 216 30
269 207 20 209 15 215 30 222 33
389 203 11 204 7 209 13 213 21 221 39
44 208 31 219 8
96 208 3 218 8 242 3 220 27 243 16 232 11
152 208 5 212 27 219 27 240 6 242 21
198 209 10 217 39 222 11 223 37
196 209 14 216 33 221 11 224 26 223 5 225 1 226 8
264 221 37 222 5 225 19
143 222 26 227 2 225 16 226 21
133 222 1 223 19 224 16 227 11
103 222 8 224 21 227 10
79 224 2 225 11 226 10
317 156 26 159 2 173 6 233 20 237 1 235 30 238 29
136 154 16 170 21 230 32 231 22 232 1
39 154 4 229 32 241 11 232 9
160 170 11 172 10 229 22 236 9 242 13 232 20
204 219 11 229 1 230 9 231 20 242 20 243 17 241 14
148 173 36 228 20 237 14 234 25
116 171 42 173 1 233 25 237 30
201 159 7 210 16 228 30 239 30 236 9 238 9
162 159 6 172 33 231 9 235 9 239 16 240 17 242 11
131 214 27 228 1 233 14 234 30 238 18
179 210 6 211 28 214 4 228 29 235 9 237 18
128 210 12 212 1 235 30 236 16 240 26
153 212 11 220 6 236 17 239 26 242 13
126 230 11 232 14 243 16
82 219 3 220 21 231 13 232 20 236 11 240 13
82 219 16 232 17 241 16
