280 776 11
194 2 22 3 36
128 1 22 5 38 10 13 3 16
49 1 36 2 16 4 23 5 6 8 14
106 3 23 5 9 6 6 7 13 8 31 9 12
125 2 38 3 6 4 9 6 20 10 24
113 4 6 5 20 10 2 7 2 24 20
53 4 13 6 2 24 13 25 44 19 11 9 44
184 3 14 4 31 9 54 67 4
213 4 12 7 44 8 54 18 1 19 12 71 12 21 39 67 28 72 15
125 2 13 5 24 6 2 24 24 25 24 26 27
566 12 115 13 114 14 6 15 17 16 28 17 20
579 11 115 41 116 42 177 52 94 13 18 53 6 54 32 47 304 16 37
529 11 114 12 18 42 99 65 8 15 42 66 12 63 28
619 11 6 30 20 33 33 15 31 265 40 17 60
191 11 17 13 42 14 31 265 12 66 27
164 11 28 12 37 57 11 53 27 30 32 17 26
223 11 20 14 60 16 26 30 40
168 9 1 19 57 20 47 21 47 22 2 23 22
540 7 11 9 12 18 57 25 54 35 37 22 51
59 18 47 36 67 22 9 23 42
104 9 39 18 47 69 14 71 61 70 1 23 30
765 18 2 19 51 20 9 266 36 267 22 253 18 261 16 35 14 36 17 263 6
489 18 22 20 42 21 30 69 48
344 6 20 7 13 10 24 25 24
419 7 44 10 24 19 54 24 24 35 1 26 10
737 10 27 25 10 268 6 227 30 230 59 35 52
572 28 1 29 19 30 17 31 32 32 11 33 24 34 62
224 27 1 37 8 38 18 31 6 34 16
257 27 19 55 11 57 31 30 50 68 36 59 55 34 9
31 14 20 16 32 17 40 27 17 29 50 57 35 33 7
83 27 32 28 6 38 2 32 28
670 27 11 31 28 38 3 39 37 33 49 40 21
341 14 33 27 24 30 7 32 49 264 46 40 42 265 25
123 27 62 28 16 29 9 37 34 68 59
426 19 37 22 14 25 1 26 52 267 25 268 27
183 20 67 22 17 266 45
58 28 8 34 34 38 4 39 42 40 5
108 28 18 31 2 32 3 37 4 39 19
331 32 37 37 42 38 19 40 21
230 32 21 33 42 37 5 39 21 235 19 264 14 232 39
385 12 116 42 274 43 397 44 19 45 13 46 57 47 2
32 12 177 13 99 41 274 60 21 46 46 61 10 62 2 63 51
298 41 397 80 83 44 53 81 5 82 549 47 220
559 41 19 43 53 80 32 177 4 196 20 45 61
300 41 13 44 61 197 2 196 54 214 25 217 14 206 29 46 52
138 41 57 42 46 45 52 214 15 60 26 219 2
566 12 304 41 2 43 220 48 4 52 98 50 1 51 769 82 179
212 47 4 49 15 50 16 51 2
685 48 15 50 24 54 9 64 37 78 4 51 4 79 52
309 47 1 48 16 49 24 52 23 54 36
539 47 769 48 2 49 4 79 766
466 12 94 47 98 50 23 54 21
122 12 6 16 27 56 50 57 19 54 68 64 5
658 12 32 49 9 50 36 52 21 53 68 64 24
78 29 11 56 43 57 5 58 14 59 36
353 53 50 55 43 57 20 58 24 64 1
243 16 11 29 31 30 35 53 19 55 5 56 20
335 55 14 56 24 59 52 64 96
71 29 55 55 36 58 52 68 30
870 42 21 46 26 241 20 242 7 219 34 62 24
556 42 10 65 5 62 28 63 22
324 42 2 60 24 61 28 242 2 65 3 250 10
204 13 28 42 51 61 22 65 37
52 49 37 53 5 54 24 56 1 58 96 78 13 84 93
585 13 8 61 5 62 3 63 37 246 11 250 7 66 34
149 13 12 15 27 65 34 243 4 247 13 264 4 246 16 265 53
154 8 4 9 28 76 45 74 25 72 60
481 29 36 34 59 59 30
231 21 14 23 48 70 54
83 21 1 69 54 71 40 73 30 74 5 72 13
15 9 12 21 61 70 40 72 60
188 9 15 67 60 70 13 71 60 74 21
15 70 30 74 48 75 39
107 67 25 70 5 72 21 73 48 76 24 75 15
16 73 39 74 15 76 31 77 4 83 27
20 67 45 74 24 75 31 77 43
21 75 4 76 43 83 32
902 49 4 64 13 84 42 85 13 86 49 87 168 79 159
453 49 52 51 766 78 159 87 628
372 43 83 44 32 177 35 81 85
407 43 5 80 85 177 5 195 6 187 33 188 7 82 68
421 43 549 47 179 81 68 133 104 151 36 135 563 187 2 154 51
60 75 27 77 32
222 64 93 78 42 86 77
244 78 13 86 40 87 71 88 45
267 78 49 84 77 85 40
563 78 168 79 628 85 71 88 106
244 85 45 87 106
636 90 3 91 1 92 5 93 1 94 5 95 6
658 89 3 91 1 92 6 96 6 97 5 98 3
573 89 1 90 1 99 8 97 2 100 1 95 11 101 10
733 89 5 90 6 98 8 93 1
931 89 1 92 1 168 2 167 7 98 1 165 4 100 6 94 4 169 2 162 5
470 89 5 93 4 100 10 95 5
1044 89 6 91 11 94 5 100 2
277 90 6 97 3 102 11 103 2 104 1 105 15 106 21 98 5
644 90 5 91 2 96 3 99 3 104 4
385 90 3 92 8 93 1 96 5 106 7 165 11
759 91 8 97 3 112 5 103 1 104 3 113 5 101 1
502 91 1 93 6 94 10 95 2 101 20 162 23
902 91 10 99 1 100 20 114 19 115 19 112 3 116 34 162 5 124 4
491 96 11 107 1 105 14 106 8 126 6 111 13 127 3 128 21 129 5 130 1 131 16
638 96 2 99 1 104 4 105 3 113 2 139 2
736 96 1 97 4 99 3 103 4
622 96 15 102 14 103 3 139 7 126 1
514 96 21 98 7 102 8 107 46 146 8 158 13 164 3 165 1 166 3 110 17
529 102 1 106 46 108 46 109 25 110 8 111 9
619 107 46 140 61 109 25 110 18
755 107 25 108 25 140 18 141 38 163 1 111 86
678 106 17 107 8 108 18 140 9 146 15 147 7 198 25 148 5 144 32
698 102 13 107 9 109 86 193 18 163 14 131 27 273 25 280 33
1049 99 5 101 3 138 3 113 5 124 10
897 99 5 103 2 112 5 138 2 139 1
764 101 19 115 1 116 7 117 5 118 10 119 2 120 12 121 22 122 37 123 25
914 101 19 114 1 124 10 120 24 125 4
610 101 34 114 7 117 63 118 6 159 9 160 20 161 20 162 15
1026 114 5 116 63 118 64
800 114 10 116 6 117 64 159 70 122 19
609 114 2 120 15 277 3 278 1 279 7 121 22
579 114 12 115 24 119 15 125 1 279 6
721 114 22 119 22 278 31 123 3
777 114 37 118 19 123 66
846 114 25 121 3 122 66 278 37 274 12
620 101 4 112 10 115 10 138 1 126 4 125 3
705 115 4 120 1 124 3 126 4 127 4 277 1 279 5
425 102 6 105 1 124 4 125 4 138 6 139 1 127 4
786 102 3 125 4 126 4 277 6 128 3
869 102 21 127 3 277 4 130 20
589 102 5 278 45 130 22 131 33 274 22
561 102 1 128 20 129 22 277 2 278 5
623 102 16 111 27 129 33 273 21 274 7 280 24
62 133 79 134 23 135 77 136 15 137 31
218 82 104 132 79 134 23 135 50 154 42
113 132 23 133 23 141 40 170 16 154 45 143 1 163 39 136 32
214 82 563 132 77 133 50 150 283 151 352 152 44 137 12
525 132 15 134 32 275 26 163 16 137 8 276 5
195 132 31 135 12 136 8 194 34 152 1 153 51 275 34
636 112 3 113 2 124 1 126 6 139 5
442 103 2 105 7 113 1 126 1 138 5
291 108 61 109 18 110 9 141 29 142 64 143 14 144 8
685 109 38 134 40 140 29 143 68 163 53
239 140 64 190 5 143 54 197 15 144 20 196 94
764 134 1 140 14 141 68 142 54 170 19 190 3
774 110 32 140 8 142 20 160 1 161 7 198 35 197 60 205 4 181 46 184 16
634 146 1 147 4 148 1 149 4
650 106 8 110 15 145 1 155 8 147 7 158 11 149 1
692 110 7 145 4 146 7 148 1
1074 110 5 145 1 147 1 162 3 198 20 149 14
653 145 4 146 1 148 14 155 3 156 10 162 2
264 135 283 151 315 152 40 153 28
511 82 36 135 352 150 315 191 463 192 2 193 75 194 34 153 111
320 135 44 137 1 150 40 153 19
393 137 51 150 28 151 111 152 19 194 104
626 82 51 133 42 134 45 170 35 187 32
807 146 8 149 3 156 7 157 2 158 1
928 149 10 155 7 157 2 167 9 162 11
637 155 2 156 2 158 6 164 2 167 4
925 106 13 146 11 155 1 157 6 164 6
923 116 9 118 70 171 48 160 1 172 24 184 10 175 1
486 116 20 144 1 159 1 161 52 184 63
708 116 20 144 7 160 52 162 31 198 20
603 93 5 100 23 101 5 116 15 148 3 149 2 156 11 161 31 167 4 198 3
557 109 1 111 14 134 39 136 16 141 53 193 13 194 16 275 9 276 40
700 106 3 157 2 158 6 168 8 167 1 166 1
490 93 4 98 11 106 1 166 5 169 4
988 106 3 164 1 165 5 168 6 169 2
589 93 7 156 9 157 4 162 4 164 1 168 2
956 93 2 164 8 166 6 167 2 169 2
678 93 2 165 4 166 2 168 2
650 134 16 143 19 154 35 185 3 186 2 190 42 187 28 189 5
175 159 48 172 34 173 24 174 16 175 63 176 15
106 159 24 171 34 176 65
484 171 24 208 10 212 39 174 27 176 43 210 36 204 23
362 171 16 173 27 199 14 183 6 213 35 175 22 204 66
401 159 1 171 63 174 22 183 1 184 12 213 50
293 171 15 172 65 173 43 212 26
541 44 4 80 35 81 5 190 33 195 11 196 19
617 179 13 180 3 181 6 182 14 183 17
109 178 13 181 24 183 26 184 41
855 178 3 200 18 211 13 182 3 183 3
804 144 46 178 6 179 24 205 2 211 15 182 29 184 8
640 178 14 180 3 181 29 211 36
709 174 6 175 1 178 17 179 26 180 3 199 34 200 3 184 9 213 62
479 144 16 159 10 160 63 175 12 179 41 181 8 183 9
497 170 3 186 3 187 4 188 5 189 7
676 170 2 185 3 187 4
656 81 33 82 2 154 32 170 28 185 4 186 4 188 6
516 81 7 185 5 187 6 190 2 195 11 189 3
587 170 5 185 7 188 3 190 11
656 142 5 143 3 170 42 177 33 188 2 189 11 195 1 196 44
814 151 463 269 190 192 203
375 151 2 191 203 269 77 270 110 271 130 193 2
40 111 18 151 75 163 13 192 2 271 151 194 187 272 24 273 41 274 94
62 137 34 151 34 153 104 163 16 193 187 275 45
560 81 6 177 11 188 11 190 1
333 44 20 45 54 142 94 177 19 190 44 197 57
557 45 2 142 15 144 60 196 57 205 51 206 55
897 110 25 144 35 148 20 161 20 162 3
761 174 14 183 34 200 55 201 48 202 32 203 14 204 3
407 180 18 183 3 199 55 205 6 211 37 202 10
474 199 48 233 33 229 9 234 29 202 13 203 64 235 13
517 199 32 200 10 201 13 205 40 233 25 238 24 239 32 206 14
435 199 14 201 64 221 10 229 50 204 65
895 173 23 174 66 199 3 203 65 221 48 210 11
515 144 4 181 2 197 51 200 6 202 40 211 15 206 20
701 45 29 197 55 202 14 205 20 217 8 239 49
414 208 37 209 41 210 34
982 173 10 207 37 212 48 210 14
334 207 41 221 42 222 44 223 25 210 14
710 173 36 204 11 207 34 208 14 209 14 221 13
1069 180 13 181 15 182 36 200 37 205 15
612 173 39 176 26 208 48
441 174 35 175 50 183 62
371 45 25 46 15 215 20 216 15 217 59 218 30 219 3
561 214 20 216 35 231 42 218 25 232 7
542 214 15 215 35 217 20 238 11 239 14 240 30 232 16
715 45 14 206 8 214 59 216 20 239 49
322 214 30 215 25 231 2 219 48
340 46 2 60 34 214 3 218 48 241 12 231 1 245 9
871 221 14 222 56 223 3 224 10 225 9 226 24 227 6 228 18
798 203 10 204 48 209 42 210 13 220 14 229 44 222 8 227 21 230 5
207 209 44 220 56 221 8 223 26
231 209 25 220 3 222 26 237 39 225 18
589 220 10 251 16 252 7 225 22 226 24 253 1
658 220 9 223 18 224 22 237 9 258 20 252 4 259 1 260 5
716 220 24 224 24 253 5 228 35
427 26 30 220 6 221 21 267 11 268 21 228 50 230 26
795 220 18 226 35 227 50 267 1 253 7
229 201 9 203 50 221 44 230 64
538 26 59 221 5 227 26 229 64
712 215 42 218 2 219 1 247 40 245 1 248 2 249 1 264 1 232 1
426 40 39 215 7 216 16 231 1 233 21 234 5 240 21 235 31 264 43
143 201 33 202 25 232 21 234 40 238 22 240 25
412 201 29 232 5 233 40 235 46
333 40 19 201 13 232 31 234 46
411 237 41
578 223 39 225 9 236 41 262 12 258 15 263 26
673 202 24 216 11 233 22 239 19 240 31
396 202 32 206 49 216 14 217 49 238 19
923 216 30 232 21 233 25 238 31
512 60 20 219 12 243 11 242 2 244 3 245 3 246 12
896 60 7 62 2 241 2 246 7 250 5
639 66 4 241 11 247 27 244 8 248 1 249 1 246 15
627 241 3 243 8 245 7 248 1
593 219 9 231 1 241 3 244 7 248 3
735 65 11 66 16 241 12 242 7 243 15 250 11
564 66 13 231 40 243 27 249 3 264 32
218 231 2 243 1 244 1 245 3 249 3
565 231 1 243 1 247 3 248 3
668 62 10 65 7 242 5 246 11
626 224 16 252 4 253 21 254 7
449 224 7 225 4 251 4 255 1 259 4 254 2
473 22 18 224 1 226 5 228 7 251 21 267 38 254 17 261 11
560 251 7 252 2 253 17 255 1 256 3 261 20
625 252 1 254 1 256 5 257 1 258 1 259 4 260 1
811 254 3 255 5 257 1 261 4
763 255 1 256 1 262 17 258 16 261 1
542 225 20 237 15 255 1 257 16 262 8 260 7
468 225 1 252 4 255 4 260 3
464 225 5 255 1 258 7 259 3
949 22 16 253 11 254 20 256 4 257 1 262 38 263 1
430 237 12 257 17 258 8 261 38 263 39
743 22 6 237 26 261 1 262 39 266 43
265 33 46 40 14 66 4 231 1 232 43 247 32 265 49
122 14 40 15 12 33 25 66 53 264 49
172 22 36 36 45 263 43
707 22 22 35 25 227 11 228 1 253 38 268 23
430 26 6 35 27 227 21 267 23
525 191 190 192 77
71 192 110 271 142
534 192 130 193 151 270 142 272 142
437 193 24 271 142 274 96
239 111 25 131 21 193 41 274 65 280 43
274 123 12 129 22 131 7 193 94 272 96 273 65 278 19
97 136 26 137 34 163 9 194 45 276 40
495 136 5 163 40 275 40
798 119 3 125 1 127 6 128 4 130 2 278 3 279 2
821 119 1 121 31 123 37 129 45 130 5 274 19 277 3
743 119 7 120 6 125 5 277 2
768 111 33 131 24 273 43
