347 966 11
1172 2 18 3 34 4 15 5 13
1007 1 18 6 23 8 3 9 28 3 12 5 1 7 28
697 1 34 2 12 9 39 4 1 17 12 16 47 18 3
283 1 15 3 1 6 1 5 26 7 23 17 59
953 1 13 2 1 4 26 6 21
1156 2 23 4 1 5 21 7 28
321 2 28 4 23 6 28 8 8 17 6 19 12 20 10 13 82
669 2 3 7 8 9 6 10 1 11 75 12 36 13 11 14 23
300 2 28 3 39 8 6 15 47 16 13 11 26
200 8 1 20 31 29 114 12 102
480 8 75 9 26
293 8 36 10 102 20 8 14 83
204 7 82 8 11 20 26 14 80
120 8 23 12 83 13 80 20 14
295 9 47 22 39 16 16
547 3 47 9 13 15 16 22 4 18 48 27 27
705 3 12 4 59 7 6 19 49 18 31 21 36
357 3 3 16 48 17 31 25 18 27 1 21 7 33 63
202 7 12 17 49 23 65 20 166 21 29 24 73
28 7 10 10 31 12 8 13 26 14 14 19 166 24 7 29 28 30 212
483 17 36 18 7 19 29 23 46 33 17 36 10 28 24
207 15 39 16 4 25 1 26 42 27 45
125 19 65 21 46 24 75 28 14
82 19 73 20 7 23 75 28 51 42 3 41 12 30 148
537 18 18 22 1 26 3 27 45 31 15 32 33 33 12
526 22 42 25 3 31 23 34 38
481 16 27 18 1 22 45 25 45
119 21 24 23 14 24 51 36 18 39 14 41 44
646 10 114 20 28 46 110
212 20 212 24 148 42 40 121 633 140 11
259 25 15 26 23 34 17 32 53 35 61
310 25 33 31 53 33 41 36 4 35 23 37 73 38 4
89 18 63 21 17 25 12 32 41 36 69
273 26 38 31 17 35 5
646 31 61 32 23 34 5 43 28 44 43 118 3 38 9
51 21 10 28 18 32 4 33 69 39 53 37 25 40 15
41 32 73 36 25 40 58 38 28 71 73
458 32 4 35 9 37 28 118 29 137 6 126 26 134 68 57 7 71 9
103 28 14 36 53 41 57 40 41
229 36 15 37 58 39 41 41 26 120 41 71 43
70 24 12 28 44 39 57 40 26 42 68 120 11
131 24 3 30 40 41 68 119 49 120 8 121 28
683 35 28 44 21 45 14
160 35 43 43 21 118 58 45 8
110 43 14 44 8 118 20 123 25 127 1 126 1 128 19
164 29 110
60 48 56 49 27 50 23 51 80
33 47 56 50 37 64 2
138 47 27 60 43 72 52 50 5 51 18
119 47 23 48 37 49 5 72 11 82 17 64 11 78 11 83 11
585 47 80 49 18 60 24 125 26 74 43
216 53 34 54 14 55 21 56 10 57 54 58 29
147 52 34 61 30 70 29 56 27 58 28
105 52 14 65 20 55 49 66 22 68 61 57 5 71 9
158 52 21 54 49 66 27 56 28 75 36 76 9
34 52 10 53 27 55 28 70 31 75 23 81 43
26 38 7 52 54 54 5 134 4 138 3 71 111 58 66
58 52 29 53 28 57 66 59 20 61 36 138 31 63 18
583 58 20 60 45 61 48 62 51 63 80
808 49 43 51 24 59 45 72 11 62 15 73 18 74 13 63 7
58 53 30 58 36 59 48 70 33 62 21 79 25 80 28
662 59 51 60 15 61 21 72 23 77 41 79 49 90 28
824 58 18 59 80 60 7 131 3 138 60 73 49
50 48 2 50 11 82 22 99 21 98 11
63 54 20 66 17 67 46 68 34 69 44
85 54 22 55 27 65 17 67 18 76 41
158 65 46 66 18 76 5 87 50 69 140 88 122
227 54 61 65 34 120 67 71 41 69 7
248 65 44 67 140 68 7 119 229 120 42 180 171 182 41 121 154 88 9 140 54
79 53 29 56 31 61 33 81 6 80 23
192 37 73 38 9 40 43 54 9 57 111 68 41 120 18
824 49 52 50 11 60 11 62 23 77 17 78 40
95 60 18 63 49 131 27 74 47
94 51 43 60 13 73 47 125 16 130 37 131 6
153 55 36 56 23 81 16 76 22 84 1 85 39 86 2
41 55 9 66 41 67 5 75 22 87 17 84 37
381 62 41 72 17 78 29 89 15 90 22 91 29
311 50 11 72 40 77 29 95 2 83 18 89 25
176 61 25 62 49 80 48 90 53 108 61
266 61 28 70 23 79 48 81 6 94 37 109 23 108 11
77 56 43 70 6 75 16 80 6 92 27 93 14 94 4 85 7
114 50 17 64 22 96 15 83 13 98 11 97 11
21 50 11 78 18 82 13 95 15 96 12
28 75 1 76 37 87 28 107 17 86 24 104 7
167 75 39 81 7 92 2 103 43 94 1 86 63 117 1 110 12 172 7
135 75 2 84 24 85 63 107 24 117 42
77 67 50 76 17 84 28 104 16 88 50
452 67 122 69 9 87 50 180 106 104 1 259 83 183 3 257 9
94 77 15 78 25 95 23 97 28 91 16
487 62 28 77 22 79 53 115 34 91 72 108 14
51 77 29 89 16 90 72 97 2 115 14 116 79
550 81 27 85 2 103 21 93 12
635 81 14 92 12 103 6 94 22
311 80 37 81 4 85 1 93 22 103 45 109 35 110 24
222 78 2 83 15 89 23 96 8 97 4
591 82 15 83 12 95 8 97 11
390 82 11 89 28 91 2 95 4 96 11 98 10 102 25 114 16 116 10
108 64 11 82 11 97 10 99 21 100 16 102 21
246 64 21 98 21 100 22 101 1
139 98 16 99 22 101 38 102 1 105 18 106 5
59 99 1 100 38 106 2 111 14 112 1
505 97 25 98 21 100 1 105 20 113 15 114 12
75 85 43 92 21 93 6 94 45
136 84 7 87 16 88 1 107 27 256 25 117 19 257 9
563 100 18 102 20 106 21 113 9
535 100 5 101 2 105 21 113 16 112 31
93 84 17 86 24 104 27 117 14
63 79 61 80 11 90 14 115 1 109 44 161 68
92 80 23 94 35 108 44 110 51 161 13
231 85 12 94 24 109 51 172 32 161 1 188 10 179 59
281 101 14 112 24 164 17 165 3
587 101 1 106 31 111 24 113 2 255 20 165 12
308 102 15 105 9 106 16 112 2 114 38 255 15
197 97 16 102 12 113 38 255 13 116 58 199 6
418 90 34 91 14 108 1 154 37 155 17 156 5 158 33 159 13 160 5 116 20 161 48
220 91 79 97 10 114 58 115 20 159 44 199 38
49 85 1 86 42 104 19 107 14 256 5 258 35 172 44
754 35 3 38 29 44 58 45 20 126 41
148 42 49 69 229 120 71 121 234
196 40 41 41 11 42 8 68 67 69 42 71 18 119 71
481 30 633 42 28 69 154 119 234 140 271
25 123 16 124 33 125 2
163 45 25 122 16 124 6 128 28
171 122 33 123 6 129 15 128 13 125 10 130 22
46 51 26 74 16 122 2 124 10 130 40
877 38 26 45 1 118 41 133 6 127 19 137 2
134 45 1 126 19 129 20 133 2 128 16 136 19 131 2 138 4
292 45 19 123 28 124 13 127 16 129 25
472 124 15 127 20 128 25 130 5 131 30
228 74 37 124 22 125 40 129 5 131 27
101 63 3 73 27 74 6 127 2 129 30 130 27 138 32
318 133 2 134 12 135 13 136 2
441 126 6 127 2 132 2 137 6 134 1 136 8
276 38 68 57 4 132 12 133 1 137 3 139 32 135 7 138 17
822 132 13 134 7 139 23 136 4
656 127 19 132 2 133 8 135 4 139 8 138 3
657 38 6 126 2 133 6 134 3
1172 57 3 58 31 63 60 127 4 131 32 134 17 136 3 139 62
827 134 32 135 23 136 8 138 62
374 30 11 69 54 121 271 182 335 240 32 244 299
489 142 25 143 13 144 6 145 26
197 141 25 146 15 147 13 143 3 144 4 148 13
444 141 13 142 3 146 26 145 3 150 28 151 28
138 141 6 142 4 145 19 152 1 153 33 148 18
1043 141 26 143 3 144 19 150 10 152 28
330 142 15 143 26 147 20 149 12
170 142 13 146 20 148 30 149 28
196 142 13 144 18 147 30 153 24 149 1
90 146 12 147 28 148 1
779 143 28 145 10 162 30 163 35 152 6 151 16
749 143 28 150 16 162 32 164 3
796 144 1 145 28 150 6 163 22 200 19 198 3 153 2 201 3
268 144 33 148 24 152 2 201 21
1296 115 37 155 21 156 41 157 9
658 115 17 154 21 184 1 157 27 160 39
687 115 5 154 41 185 11 187 14 189 19 157 2 161 29 188 16
812 154 9 155 27 156 2 184 1 220 1 189 20 212 28
162 115 33 159 38 202 7 203 19 204 12 160 40
194 115 13 116 44 158 38 203 37 205 56 196 6 199 47
106 115 5 155 39 158 40 206 7 184 4 202 8
378 108 68 109 13 110 1 115 48 156 29 188 45
455 150 30 151 32 163 5 164 13 165 20 166 39
533 150 35 152 22 162 5 192 19 194 2 198 4 196 45 166 11 199 8
529 111 17 151 3 162 13 165 26
218 111 3 112 12 162 20 164 26 255 18 166 13
114 162 39 163 11 165 13 255 16 199 51
166 168 37 169 16 170 83 171 42 172 29 173 33 174 16
105 167 37 175 13 176 24 170 17 172 42 177 12 178 21 179 22
112 167 16 180 84 181 43 173 43 225 18 174 70
151 167 83 168 17 175 19 191 48 245 57 174 73
374 167 42 258 41 172 4 173 55
56 85 7 110 32 117 44 167 29 168 42 171 4 258 29 179 7
237 167 33 169 43 171 55 180 5 256 7 258 8 183 68
132 167 16 169 70 170 73 260 17 261 52 225 56 245 34 262 54
41 168 13 170 19 186 10 176 61 191 67
190 168 24 175 61 185 10 186 38 178 24
161 168 12 178 35 188 21 179 44
96 168 21 176 24 177 35 185 29 188 19
61 110 59 168 22 172 7 177 44 188 8
435 69 171 88 106 169 84 173 5 181 63 182 240 183 67
169 169 43 180 63 182 65 240 30 225 53
420 69 41 140 335 180 240 181 65 240 30
69 88 3 173 68 180 67 256 27 259 46 257 19
1479 155 1 157 1 160 4 206 4 210 9 211 9 212 16 207 7
606 156 11 176 10 178 29 186 29 187 23 188 21
53 175 10 176 38 185 29 187 25 190 33 191 1
177 156 14 185 23 186 25 189 30 190 16 197 4
210 110 10 156 16 161 45 177 21 178 19 179 8 185 21
183 156 19 157 20 187 30 219 17 220 5 197 1
298 186 33 187 16 238 18 197 11 191 3 239 35
231 170 48 175 67 186 1 190 3 239 3 245 25 299 59
115 163 19 193 1 194 8 195 23 196 1
505 192 1 194 3 200 5 198 4 195 7 201 7
841 163 2 192 8 193 3 198 7
572 192 23 193 7 201 4 222 18 196 13 223 11
700 159 6 163 45 192 1 195 13 205 5 226 2 223 25 232 38 199 33 243 32
1198 187 4 189 1 190 11 219 4 238 8 221 13 236 10
578 152 3 163 4 193 4 194 7 200 7
109 114 6 116 38 159 47 163 8 166 51 196 33 255 31
1102 152 19 193 5 198 7 201 12
1084 152 3 153 21 193 7 195 4 200 12 222 24
170 158 7 160 8 206 25 204 11 208 16
101 158 19 159 37 217 24 204 11 205 12
215 158 12 202 11 203 11 217 15 208 12
248 159 56 196 5 203 12 217 31 226 82 218 5
220 160 7 184 4 202 25 207 20 208 5 209 9
1125 184 7 206 20 211 3 234 5 216 2 209 8
183 202 16 204 12 206 5 217 42 246 38 209 5 218 2 247 1
524 206 9 207 8 208 5 233 14 234 1 246 16 235 1
813 184 9 211 1 212 3 213 1 214 9 215 3
483 184 9 207 3 210 1 216 7 215 5
1164 157 28 184 16 210 3 220 4 224 12 214 3
594 210 1 227 6 228 1 214 8 215 1 229 1 230 2
446 210 9 212 3 213 8 224 1 228 9
424 210 3 211 5 213 1 227 5 216 2 231 1
841 207 2 211 7 215 2 234 7 231 3
100 203 24 204 15 205 31 208 42 218 13
227 205 5 208 2 217 13 226 29 248 34 232 4 247 10 306 11 249 26 278 8 270 29
659 189 17 197 4 220 11 221 11
830 157 1 189 5 212 4 219 11 224 14 221 4
684 197 13 219 11 220 4 224 1 236 4
346 195 18 201 24 223 6
675 195 11 196 25 222 6 243 34 250 10 251 16
310 212 12 214 1 220 14 221 1 228 12 236 3 237 1
171 169 18 174 56 181 53 240 14 244 43 262 38
236 196 2 205 82 218 29 232 57
285 213 6 215 5 231 1 230 7
553 213 1 214 9 224 12 229 3 237 11
681 213 1 228 3 237 3 230 4 242 7 241 3
523 213 2 227 7 229 4 231 13 242 11 235 3
479 215 1 216 3 227 1 230 13 233 11 234 1 235 8
166 196 38 218 4 226 57 248 21 253 17 243 7 249 8
620 209 14 231 11 234 4 235 2
769 207 5 209 1 216 7 231 1 233 4
707 209 1 230 3 231 8 233 2 246 11 242 19 252 20 254 14
1217 197 10 221 4 224 3 238 6 237 9 241 11 239 11
1147 224 1 228 11 229 3 236 9 241 10
443 190 18 197 8 236 6 239 16
847 190 35 191 3 236 11 238 16 241 12 301 52 299 11 307 6
494 140 32 181 30 182 30 225 14 244 14
797 229 3 236 11 237 10 239 12 242 23 300 4 301 1 254 2
673 229 7 230 11 235 19 241 23 254 4
351 196 32 223 34 232 7 253 48 302 3 251 11
211 140 299 225 43 240 14 260 134 262 50 263 133
549 170 57 174 34 191 25 261 82 299 21 274 77
381 208 38 209 16 235 11 252 19 247 32
385 208 1 218 10 246 32 252 29 254 14 306 55 308 9
39 218 34 232 21 249 30
123 218 26 232 8 248 30 253 25 302 30 278 28
279 223 10 251 25
58 223 16 243 11 250 25 302 9 303 23
615 235 20 246 19 247 29 254 3
70 232 17 243 48 249 25 302 22
165 235 14 241 2 242 4 247 14 252 3 300 38 308 19 283 12
70 112 20 113 15 114 13 165 18 166 16 199 31
87 104 25 117 5 173 7 183 27 258 9 257 29
602 88 9 104 9 183 19 256 29 259 39
167 117 35 171 41 172 29 173 8 256 9
378 88 83 183 46 257 39
148 174 17 244 134 261 53 262 102 263 199
308 174 52 245 82 260 53 271 4 273 37 274 22 287 98 263 53
114 174 54 225 38 244 50 260 102
74 244 133 260 199 261 53 319 11 322 24 321 57 287 98 326 171
249 265 32 266 24 267 23 268 20 269 42 270 1
284 264 32 268 21 277 42 278 4 270 59
142 264 24 267 15 279 41 268 36 280 26
531 264 23 266 15 279 13 269 9 281 20 282 9 283 22 276 27
433 264 20 265 21 266 36 280 31 277 31 286 21
271 264 42 267 9 306 2 308 21 283 16 270 33
696 218 29 264 1 265 59 269 33 306 55 278 24
369 261 4 272 6 273 47 274 80 275 37 276 45
463 271 6 279 48 289 53 285 20 290 6 273 13 276 43
73 261 37 271 47 272 13 289 50 290 24 292 20 296 1 287 48 298 1
119 245 77 261 22 271 80 299 32 275 1
375 271 37 274 1 299 10 307 34 310 11 314 26 276 5
237 267 27 271 45 272 43 275 5 279 22 281 17 314 15
215 265 42 268 31 291 10 286 22
80 218 8 249 28 265 4 270 24 302 21 303 13
172 266 41 267 13 272 48 276 22 280 6 284 23 285 10
145 266 26 268 31 279 6 284 28 286 7 288 35
606 267 20 276 17 311 6 314 17 282 10
384 267 9 281 10 304 7 311 5 313 4 309 4 283 10
110 254 12 267 22 269 16 282 10 300 2 304 20 308 24
240 279 23 280 28 285 42 288 30
201 272 20 279 10 284 42 290 35 292 6 293 54 288 11
49 268 21 277 22 280 7 291 56 295 18 288 57
639 261 98 263 98 273 48 322 90 298 51
99 280 35 284 30 285 11 286 57 293 24 316 8
109 272 53 273 50 290 36
267 272 6 273 24 285 35 289 36 292 63
252 277 10 286 56 294 24 295 24
227 273 20 285 6 290 63 296 79 293 40 297 13
65 285 54 288 24 292 40 316 90 297 7
417 291 24 295 14
59 286 18 291 24 294 14 329 41
696 273 1 292 79 327 13 328 19 298 39 297 33
470 292 13 293 7 296 33 315 47 319 59 322 32 328 7 316 36 323 16 317 26
498 273 1 287 51 296 39 322 14 327 12 328 2 323 28
210 191 59 239 11 245 21 274 32 275 10 307 52
303 241 4 254 38 283 2 301 35 304 12 305 11
1075 239 52 241 1 300 35 307 31 305 17
51 243 3 249 30 251 9 253 22 278 21 303 25
76 251 23 278 13 302 25
1131 282 7 283 20 300 12 305 14 309 10
915 300 11 301 17 304 14 307 13 309 2 310 22
766 218 11 247 55 269 2 270 55 308 28
187 239 6 275 34 299 52 301 31 305 13 310 1
102 247 9 254 19 269 21 283 24 306 28
1350 282 4 304 10 305 2 313 7 310 7
853 275 11 305 22 307 1 309 7 312 12 313 1 314 5
267 281 6 282 5 312 4 313 4 314 1
823 310 12 311 4 313 6 314 15
757 282 4 309 7 310 1 311 4 312 6
591 275 26 276 15 281 17 310 5 311 1 312 15
320 297 47 316 18 317 61
53 288 8 293 90 297 36 315 18
320 297 26 315 61 318 21 319 5 320 2 324 67 345 12 346 35 347 47
804 317 21 319 110 320 85 321 25
248 263 11 297 59 317 5 318 110 322 124 321 74
397 317 2 318 85 321 64 324 70 325 3
79 263 57 318 25 319 74 320 64 326 166 325 21
189 263 24 287 90 297 32 298 14 319 124 323 42
95 297 16 298 28 322 42 328 21
203 317 67 320 70 325 49 345 64
125 320 3 321 21 324 49 326 62 345 27 332 79 337 52
171 263 171 321 166 325 62 332 107
580 296 13 298 12 328 7
342 296 19 297 7 298 2 323 21 327 7
104 295 41 330 21
183 329 21 331 36
541 330 36
260 325 79 326 107 338 74 339 27 337 18
168 334 1 335 101 336 23 337 91
269 333 1 339 64 341 31 335 79 340 17 342 22 337 1
369 333 101 334 79 341 13 336 38 343 22
72 333 23 335 38 343 56
96 325 52 332 18 333 91 334 1 339 4 345 2 346 71
137 332 74 339 98 340 2
172 332 27 334 64 337 4 338 98 340 85
135 334 17 338 2 339 85 342 41 344 57
852 334 31 335 13 343 38 342 32
212 334 22 340 41 341 32 343 9
227 335 22 336 56 341 38 342 9
81 340 57
237 317 12 324 64 325 27 337 2 346 80
844 317 35 337 71 345 80 347 1
146 317 47 346 1
