380 1068 11
160 2 15 3 37
567 1 15 8 34 3 1 9 10 10 44
356 1 37 2 1 11 1 12 31 8 31
787 5 64 6 5 7 42
738 4 64 20 36 33 3
176 4 5 7 55
414 4 42 6 55
338 2 34 3 31 11 17 9 8
2321 2 10 8 8 11 17 13 3 10 2 21 9 22 24
1008 2 44 9 2 23 12 24 18 26 19 34 5 22 10
1379 3 1 8 17 9 17 12 10 13 21
895 3 31 11 10 13 18
849 9 3 11 21 12 18 21 12
457 15 31 16 17
567 14 31 17 29 18 25 19 18 20 7 16 11
358 14 17 15 11 18 29 35 21 32 2
340 15 29 18 1 19 25 29 18 30 11 31 3
770 15 25 16 29 17 1 29 21 32 18
1208 15 18 17 25 20 58 30 31 33 2
505 5 36 15 7 19 58 33 50
1971 9 9 13 12 22 14 38 13 39 6 40 10
1399 9 24 10 10 21 14 34 13 39 22
709 10 12 24 25 25 29
276 10 18 23 25 26 16 25 5 27 1 28 17
334 23 29 24 5 27 16 36 10 37 19
186 10 19 24 16 34 15 28 12
837 24 1 25 16 28 23 36 7 49 17 50 15 48 7
596 24 17 26 12 27 23 34 7 48 17
507 17 18 18 21 32 8 31 16
363 17 11 19 31 33 1 31 4 51 25 52 10
1066 17 3 29 16 30 4 32 2 53 16 51 10
506 16 2 18 18 29 8 31 2 35 24 41 21 53 20
642 5 3 19 2 20 50 30 1 45 11 46 26 52 8
283 10 5 22 13 26 15 28 7 39 6 47 20 48 17
374 16 21 32 24 41 2 42 31 43 10 44 12
507 25 10 27 7 37 37 50 34
536 25 19 36 37
1112 21 13 39 4 58 19 40 27 59 4 60 9 61 1
401 21 6 22 22 34 6 38 4 58 13 47 6 59 14
1517 21 10 38 27 42 32 60 22
478 32 21 35 2 53 9 44 24 57 29
1339 35 31 40 32 43 11 60 3 63 15
436 35 10 42 11 44 22 63 26
106 35 12 41 24 43 22 57 4 63 3
260 33 11 46 30
875 33 26 45 30 52 29 62 19
1429 34 20 39 6 59 16 48 8 262 22 261 15
587 27 7 28 17 34 17 47 8 49 3 55 9 261 14
187 27 17 48 3 50 16 54 17 55 12 56 10
455 27 15 36 34 49 16 56 18
607 30 25 31 10 53 24 52 26 264 7
924 30 10 33 8 46 29 51 26 285 40 62 14 264 6
370 31 16 32 20 41 9 51 24 263 5 57 6 264 1
196 49 17 55 11 259 15 56 23 260 3
273 48 9 49 12 54 11 259 19 261 21
483 49 10 50 18 54 23 260 19
943 41 29 44 4 53 6 263 10 282 12 267 8 63 6 283 13
1152 38 19 39 13 59 18
971 38 4 39 14 47 16 58 18 262 2 61 26
1268 38 9 40 22 42 3 272 3 61 11 284 16 279 25 63 9
1204 38 1 59 26 60 11 271 14 272 11 262 12
773 46 19 52 14 285 1 306 35 126 10 304 30
804 42 15 43 26 44 3 57 6 60 9 284 8 287 13 283 8 307 14
1146 65 2 66 4 67 10 68 6 69 1 70 5 71 1
1489 64 2 106 1 68 8 71 8
1404 64 4 110 15 68 2 69 11 114 17 111 5 86 2
1031 64 10 69 13 92 1 70 4
1288 64 6 65 8 66 2 106 3 110 3 107 1 112 3
1126 64 1 66 11 67 13 83 18 92 1 86 1
1220 64 5 67 4 92 12 71 7 140 7 148 1
1122 64 1 65 8 70 7 106 3 79 4 140 4
1131 73 2 74 4 75 1 76 4 77 1 78 1
747 72 2 75 7 79 2 80 6 81 1 78 1
657 72 4 87 2 77 4 88 8 78 2
1093 72 1 73 7 76 2 106 3 107 1 108 6 79 1 109 2
1122 72 4 75 2 77 4 108 1
778 72 1 74 4 76 4 87 4 108 1 90 2
1217 72 1 73 1 74 2 142 2 88 3 80 1 144 2 150 1
689 71 4 73 2 75 1 106 8 137 3 138 6 81 1 140 3
1179 73 6 78 1 149 2 81 3 150 3
614 73 1 79 1 80 3 149 3 138 6 151 2
1090 83 15 84 14 85 11 86 6
1030 69 18 82 15 92 2 85 1 86 11
861 82 14 93 14 85 9 155 7 95 7 86 7 96 3 156 7
979 82 11 83 1 84 9 92 12 155 11 148 6
1065 66 2 69 1 82 6 83 11 84 7 114 23 314 1 313 10 337 13 156 12
1096 74 2 77 4 88 1 89 8 90 5 91 2
1314 74 8 78 3 87 1 142 2 132 1 133 1 89 2 100 8
832 87 8 88 2 97 5 99 1 100 2 91 1 129 7
1036 77 2 87 5 108 1 91 2 116 6 339 2
1327 87 2 89 1 90 2 338 6 129 3 339 1 335 3
1078 67 1 69 1 70 12 83 2 85 12 148 11
961 84 14 94 14 95 21 96 18
459 93 14 95 25 152 4 125 31 96 13 153 5 154 33
525 84 7 93 21 94 25 155 11 199 21 152 28
998 84 3 93 18 94 13 156 22 154 4
1103 89 5 98 1 99 4 100 6 101 11 102 7 103 4
1421 97 1 104 16 101 13 105 12 103 16
878 89 1 97 4 102 7 129 7
721 88 8 89 2 97 6 132 2 175 1 176 5 136 2 101 4
553 97 11 98 13 100 4 175 5 181 13 105 1
1034 97 7 99 7 129 1 103 3 344 10 335 1
975 97 4 98 16 102 3 117 1 104 9 119 13 342 4 343 1 344 4
715 98 16 103 9 117 62 105 53
1306 98 12 101 1 104 53 195 12 196 6 181 2 198 45
1205 65 1 68 3 71 3 75 3 79 8 107 8
1024 68 1 75 1 106 8 109 9 112 6
1176 75 6 76 1 77 1 90 1 109 1 115 5 116 2
1137 75 2 107 9 108 1 112 7 115 8 345 2 113 1
1256 66 15 68 3 111 2 112 14 113 3
1267 66 5 110 2 312 5 328 11 114 16 327 7 330 9 113 1
1017 68 3 107 6 109 7 110 14 113 3
1223 109 1 110 3 111 1 112 3 340 1 341 6 330 9 345 7
848 66 17 86 23 111 16 287 10 312 16 313 4
344 108 5 109 8 345 3 116 6
780 90 6 108 2 115 6 345 4 339 1
1256 103 1 104 62 118 4 119 3 120 17 121 58
1561 117 4 308 21 318 6 325 5 120 18 121 15
798 103 13 117 3 324 5 325 7 334 9 120 13 343 8
851 117 17 118 18 119 13 325 14
862 117 58 118 15 308 2 290 57
271 123 26 124 29 125 12 126 16 127 34 128 3
37 122 26 146 24 124 27 147 17 128 36
82 122 29 123 27 177 43 125 1 147 16
364 94 31 122 12 124 1 177 22 152 14 220 17 224 32 127 32 153 24
225 62 10 122 16 306 15 304 17 127 24
576 122 34 125 32 126 24 304 26 153 15
243 122 3 123 36 146 15 170 37
1362 89 7 91 3 99 7 102 1 335 4
1178 131 3 132 1 133 3 134 7 135 2 136 1
213 130 3 142 3 133 1 143 2 144 1 135 1 145 1
1204 88 1 100 2 130 1 133 6 136 6
1054 88 1 130 3 131 1 132 6 142 5
1143 130 7 157 1 158 5 162 5 159 1 135 1 165 1 136 1
464 130 2 131 1 134 1 165 1 178 2 145 1 179 2
1301 100 2 130 1 132 6 134 1 159 3 176 5
1154 79 3 138 6 139 2 140 6 141 5
977 79 6 81 6 137 6 139 1 151 1
194 137 2 138 1 165 2 178 3 151 2 179 3 141 6 166 1
1500 70 7 71 4 79 3 137 6 180 5 141 7 148 8
1034 137 5 139 6 140 7 180 1 190 2 166 1 187 11
1016 78 2 88 2 131 3 133 5 144 1
778 131 2 149 1 144 1 150 2 145 2 151 1
485 78 2 131 1 142 1 143 1 150 2
880 131 1 135 1 143 2 151 2 179 2
369 123 24 128 15 167 26 168 44 147 24 169 1 170 20
209 123 17 124 16 146 24 177 4 219 27 169 38
1237 70 1 85 6 92 11 140 8 182 5 180 1 155 6 184 13
1211 80 2 81 3 143 1 150 1 151 2
1240 78 1 80 3 143 2 144 2 149 1
1046 81 2 138 1 139 2 143 1 145 2 149 2 179 2
1110 94 4 95 28 125 14 199 22 224 25 225 10 211 8 226 33
653 94 5 125 24 127 15 285 19 336 26 304 16 305 27 154 1
1427 94 33 96 4 153 1 336 40 314 9 337 3 156 3
1254 84 7 85 11 95 11 148 6 199 20 184 10 200 7
842 84 7 86 12 96 22 154 3 337 24
709 134 1 158 7 159 7 160 1 161 4
1170 134 5 157 7 162 1 163 7 164 1 161 1
519 134 1 136 3 157 7 175 1 176 4 160 7
887 157 1 159 7 175 5 196 12 181 3 161 14
1205 157 4 158 1 160 14 195 4 163 4 196 1 193 4 197 2 206 10 207 9
833 134 5 158 1 165 8 166 3 164 4
738 158 7 161 4 189 2 164 5 193 4
875 158 1 162 4 163 5 189 2 166 5
1410 134 1 135 1 139 2 162 8 178 5 166 1
679 139 1 141 1 162 3 164 5 165 1 189 2 190 8
139 146 26 171 10 172 26 168 16 173 28 170 5 174 21
121 146 44 167 16 171 35 169 23 217 15
241 146 1 147 38 168 23 217 41
211 128 37 146 20 167 5 319 30 173 16
61 167 10 168 35 172 35 216 38 217 12
221 167 26 171 35 216 1 174 18
291 167 28 170 16 319 59 174 40
134 167 21 172 18 173 40
474 100 1 101 5 159 1 160 5 176 9 181 8
975 100 5 136 5 159 4 175 9
312 124 43 125 22 147 4 219 26 220 17
1106 135 2 139 3 165 5 179 1
587 135 2 139 3 145 2 151 2 178 1
1337 140 5 141 1 148 1 182 9 186 3 187 7 183 2 188 4
605 101 13 105 2 160 3 175 8 196 15
1355 148 5 180 9 183 8 184 8 185 7
863 180 2 182 8 212 5 215 1 185 1 188 7 213 4
1057 148 13 155 10 182 8 214 3 185 9 200 1
1166 182 7 183 1 184 9 214 10 215 5
691 180 3 190 4 187 4 194 5 188 3
1337 141 11 180 7 186 4 190 5
1348 180 4 183 7 186 3 212 1 194 5
1188 163 2 164 2 166 2 190 3 191 2 192 3 193 5
1169 141 2 166 8 186 4 187 5 189 3 191 3 194 1
1196 189 2 190 3 201 1 202 1 203 7 204 4 192 2 194 5 205 1
1218 189 3 191 2 204 7 193 6 207 3
1136 161 4 163 4 189 5 192 6 207 1
1188 186 5 188 5 190 1 191 5 212 2 203 4
791 105 12 161 4 196 22 197 2 198 22
318 105 6 160 12 161 1 181 15 195 22
950 161 2 195 2 198 21 206 10 227 4 228 1 229 13 230 11
1473 105 45 195 22 197 21 229 43
713 95 21 152 22 155 20 200 6 211 20
1443 155 7 184 1 199 6 214 10 215 12 221 1 218 2 222 6 211 23
1283 191 1 202 7 208 5 209 2 205 6 210 5
1043 191 1 201 7 204 6 207 5 210 3
1171 191 7 194 4 212 6 205 6
1138 191 4 192 7 202 6 207 2
1095 191 1 201 6 203 6 212 4 208 8 218 2 213 1 223 1
1217 161 10 197 10 209 1 235 11 207 1 227 16
951 161 9 192 3 193 1 202 5 204 2 206 1 235 5 236 2 210 1
1343 201 5 205 8 209 4 232 6 233 1 223 7
1516 201 2 206 1 208 4 235 3 236 1 210 4 233 10 227 1
1415 201 5 202 3 207 1 209 4 236 6
1201 152 8 199 20 200 23 222 6 225 14 242 27
1288 183 5 188 1 194 2 203 6 205 4 213 10
904 183 4 205 1 212 10 215 9 218 15
1028 184 3 185 10 200 10 215 6
982 183 1 185 5 200 12 213 9 214 6 218 3
90 171 38 172 1 217 33
183 168 15 169 41 171 12 216 33
1271 200 2 205 2 213 15 215 3 221 14 223 6
112 147 27 177 26 220 18 231 15
47 125 17 177 17 219 18 224 20 231 24 234 7
1129 200 1 218 14 222 18 223 7
1004 200 6 211 6 221 18 238 23 223 2 242 1
1261 205 1 208 7 218 6 221 7 222 2 232 9 238 1
450 125 32 152 25 220 20 226 34 234 37 243 29
1203 152 10 211 14 242 14 226 34 254 10 255 24
485 152 33 224 34 225 34 243 21 255 13
1016 197 4 206 16 209 1 233 9 228 12 245 2
1448 197 1 227 12 245 15 230 22 258 12
671 197 13 198 43 230 41 353 3 354 7
1432 197 11 228 22 229 41 354 1 258 31
59 219 15 220 24 234 29
1065 208 6 223 9 237 1 238 1 233 3 240 11 241 10
934 208 1 209 10 227 9 232 3 244 9 245 1 241 3
176 220 7 224 37 231 29 243 12
1109 206 11 207 5 209 3 236 7
955 207 2 209 1 210 6 235 7
1230 232 1 238 23 239 15 240 13
1266 222 23 223 1 232 1 237 23 239 1 242 17
1182 237 15 238 1 247 9 240 3 248 20 242 6
1381 232 11 237 13 239 3 247 3 246 9 241 1
1169 232 10 233 3 240 1 244 12 246 8
1370 211 27 222 1 225 14 238 17 239 6 248 8 254 21 352 10
779 224 29 226 21 234 12 255 9 364 52
774 233 9 241 12 245 11 246 1
1525 227 2 228 15 233 1 244 11 249 2 246 2 251 7 258 7
1184 240 9 241 8 244 1 245 2 249 10 247 2 250 1 253 4
1027 239 9 240 3 246 2 248 1 252 4 253 7
991 239 20 242 8 247 1 252 6 351 4 349 20 352 27
971 245 2 246 10 250 5 251 8
1250 246 1 249 5 256 3 251 4 253 1 257 3
1251 245 7 249 8 250 4 346 1 256 5 348 7 258 9
1228 247 4 248 6 347 4 253 3 257 1 349 4
944 246 4 247 7 250 1 252 3 257 6
984 225 10 242 21 352 27 255 26 359 3
636 225 24 226 13 243 9 254 26 364 14 359 30
1248 250 3 251 5 346 4 347 5 257 5
1319 250 3 252 1 253 6 256 5 347 1
1176 228 12 230 31 245 7 251 9 348 11 354 14 357 10 363 21
347 54 15 55 19 260 20 261 10 277 14
562 54 3 56 19 259 20 289 37 277 4 290 2
271 47 15 48 14 55 21 259 10 262 6 277 1 286 13 308 2
1497 47 22 59 2 61 12 261 6 271 1 276 6 286 23
1396 53 5 57 10 265 4 266 1 267 13 268 1 269 1 264 25
1579 51 7 52 6 53 1 263 25 285 35 268 7 299 13 305 9
894 263 4 266 3 269 5 280 1 281 1
326 263 1 265 3 282 1 267 3 281 1
1388 57 8 263 13 266 3 282 8
873 263 1 264 7 297 1 269 5 299 6
536 263 1 265 5 268 5 297 2 280 1
1244 271 2 272 3 273 4 274 7 275 2
1177 61 14 262 1 270 2 272 6 276 8 274 3
1204 60 3 61 11 270 3 271 6 278 3 279 3 275 8
1099 270 4 291 4 278 1 274 1 275 6 292 4
874 270 7 271 3 273 1 291 3 276 9
1134 270 2 272 8 273 6 278 9
1102 262 6 271 8 274 9 291 4 293 9 302 1 286 6
1139 259 14 260 4 261 1 289 17 308 28 290 14
811 272 3 273 1 275 9 300 8 279 8 301 1 292 5
305 60 25 272 3 278 8 284 10 300 13 288 7
1093 265 1 269 1 297 9 281 9 298 8
1342 265 1 266 1 280 9 282 8 298 2 283 6
1259 57 12 266 1 267 8 281 8 283 6
1159 57 13 63 8 281 6 282 6 298 17 307 20 313 1
1081 60 16 63 8 279 10 287 30 288 19
365 52 40 62 1 153 19 264 35 304 38 305 1
991 261 13 262 23 276 6 302 18 308 13
1089 63 13 114 10 284 30 288 7 307 16 312 1 313 15
998 279 7 284 19 287 7 300 2 312 26 303 5
768 260 37 277 17 290 27
895 121 57 260 2 277 14 289 27 308 2
959 273 4 274 3 276 4 292 1 293 4 294 3 295 1 296 5
1238 273 4 278 5 291 1 309 3 301 5 295 8
930 276 9 291 4 315 4 294 6 320 3 302 7 318 3
950 291 3 293 6 315 1 316 5 296 3
1177 291 1 292 8 309 3 296 8 310 5
1267 291 5 294 3 295 8 316 3 310 1
1036 268 1 269 2 280 9 298 1 299 9
1492 280 8 281 2 283 17 297 1 299 8 314 16 313 6 305 17
1017 264 13 268 6 297 9 298 8 305 12
1038 278 8 279 13 288 2 301 14 303 1
1060 278 1 292 5 300 14 309 5 303 11
1234 276 1 286 18 293 7 320 17 308 10
1203 288 5 300 1 301 11 309 6 312 5 326 12 327 1 311 1
218 62 30 126 17 127 26 153 16 285 38
1649 153 27 264 9 285 1 298 17 299 12 336 19 314 6
133 62 35 126 15
1079 63 14 283 20 287 16 313 26
1202 118 21 121 2 261 2 277 28 286 13 290 2 302 10 320 5 318 1
1400 292 3 295 3 301 5 303 6 310 4 311 7
1135 295 5 296 1 309 4 316 2 321 5 317 1 311 4
1362 303 1 309 7 310 4 321 6 332 8 327 9 323 4
544 111 5 114 16 287 1 288 26 303 5 326 3 327 7
611 86 10 114 4 283 1 287 15 298 6 307 26 314 22
1429 86 1 154 9 298 16 305 6 313 22 336 1 337 31
1053 293 4 294 1 316 6 317 9 318 3
1381 294 5 296 3 310 2 315 6 317 2
979 310 1 315 9 316 2 321 5 322 8 318 2
829 118 6 293 3 308 1 315 3 317 2 320 18 322 5 325 12
119 170 30 173 59
852 293 3 302 17 308 5 318 18
1169 310 5 311 6 317 5 322 3 323 8
1120 317 8 318 5 321 3 324 8 323 4 325 1
939 311 4 321 8 322 4 332 7 324 12
1421 119 5 322 8 323 12 332 3 325 13 334 8
1435 118 5 119 7 120 14 318 12 322 1 324 13
772 303 12 312 3 327 13
1022 111 7 303 1 311 9 312 7 326 13 328 2 332 2 329 5
978 111 11 327 2 329 11 330 3 331 2
1221 327 5 328 11 332 16 333 1 331 7
842 111 9 113 9 328 3 341 1 331 2
685 328 2 329 7 330 2 333 1 341 7
1043 311 8 323 7 324 3 327 2 329 16 333 5 334 7 335 5
1138 329 1 331 1 332 5 338 3 340 8 341 1 339 2 335 5
986 119 9 324 8 332 7 342 1 343 6 344 2 335 8
1123 91 3 102 1 129 4 332 5 333 5 334 8 338 4 344 5
1101 153 26 154 40 305 19 314 1
1681 86 13 154 3 156 24 314 31
1302 91 6 333 3 335 4 339 4
1166 90 2 91 1 116 1 333 2 338 4 340 1 345 4
192 113 1 333 8 339 1 341 6 345 6
1098 113 6 330 1 331 7 333 1 340 6
1072 103 4 334 1 343 10 344 10
898 103 1 119 8 334 6 342 10
1620 102 10 103 4 334 2 335 5 342 10
1242 109 2 113 7 115 3 116 4 339 4 340 6
1212 251 1 256 4 347 4 348 7 349 6 350 8
1153 252 4 256 5 257 1 346 4 349 5
1236 251 7 258 11 346 7 355 3 356 5 357 8 350 2
1267 248 20 252 4 346 6 347 5 351 7 350 13
1202 346 8 348 2 349 13 351 15 356 7
1233 248 4 349 7 350 15 355 4 356 3 352 11 358 35
855 242 10 248 27 254 27 351 11 365 29 358 6 366 7 367 1 359 12
1091 229 3 360 4 354 39 361 17
631 229 7 230 1 258 14 353 39 360 21 363 17 362 27
1353 348 3 351 4 356 7 357 9 358 1
1315 348 5 350 7 351 3 355 7
1182 258 10 348 8 355 9 358 2 363 18 368 6
889 351 35 352 6 355 1 357 2 368 35 367 4
957 254 3 255 30 352 12 365 36 364 20 371 21 366 9 372 3
322 353 4 354 21 361 31 362 20
1406 353 17 360 31 362 6
1260 354 27 360 20 361 6 363 15 370 36 376 3
1373 258 21 354 17 357 18 362 15 369 23 368 14 370 5
774 243 52 255 14 359 20 371 47
829 352 29 359 36 366 52
1467 352 7 359 9 365 52 367 16 372 28
1025 352 1 358 4 366 16 369 35 368 12 377 7 370 7
1257 357 6 358 35 363 14 367 12 369 19
494 363 23 367 35 368 19 370 25
776 362 36 363 5 367 7 369 25 377 32 376 3
278 359 21 364 47 372 27
927 359 3 366 28 371 27
783 374 2 375 1 376 2
1208 373 2 377 19 378 16 375 4 376 4
1134 373 1 374 4 378 1 376 2 379 5
1153 362 3 370 3 373 2 374 4 375 2 377 17 379 9
985 367 7 370 32 374 19 376 17 378 3
1217 374 16 375 1 377 3 379 1 380 15
961 375 5 376 9 378 1
177 378 15
