175 479 11
33 2 29 3 32 4 19 5 23
89 1 29 4 8 6 37 7 36 5 32
109 1 32 4 15 8 8 9 27 10 16 5 17
129 1 19 2 8 3 15 8 12 11 10 6 30
116 1 23 2 32 3 17 116 29 7 7 10 7 123 12 117 42
437 2 37 4 30 7 11 13 34
474 2 36 5 7 6 11 13 65 122 19 123 32
330 3 8 4 12 11 35 9 24 10 7
341 3 27 8 24 10 21
133 3 16 5 7 8 7 9 21 11 4 110 29 111 8 116 3 12 30
99 4 10 8 35 10 4 12 22
221 10 30 11 22 110 14 113 10
88 6 34 7 65
209 15 148 16 36 17 17 18 169 19 24 20 18
255 14 148 17 19 21 4 22 110 20 65
137 14 36 18 31 19 47 27 11 28 27 29 17
120 14 17 15 19 18 332 37 403 38 22 22 119
193 14 169 16 31 17 332 39 713 27 27
274 14 24 16 47 24 16 31 37 28 19 20 14 35 11
211 14 18 15 65 19 14 21 40 35 40
206 15 4 20 40 38 9 142 2 144 24 154 27 22 26 35 29
111 15 110 17 119 21 26 38 30
192 24 49 25 34 26 38
110 19 16 23 49 30 40 31 41 32 9 33 2 34 14 25 20 35 19 26 9
77 23 34 24 20 32 66 41 7 26 4 157 21 158 6
66 23 38 24 9 25 4 35 35 158 29
340 16 11 18 27 39 34 48 21 50 23 29 31
95 16 27 19 19 31 27 53 3 54 49 36 16 29 5
444 16 17 27 31 28 5 43 12 50 31 54 14 44 28 45 14
63 24 40 31 32 33 53 36 22
228 19 37 24 41 28 27 30 32 36 13
68 24 9 25 66 40 1 34 34 41 14 42 67
37 24 2 30 53 53 13 36 13 58 36 34 24 57 25
142 24 14 32 34 33 24 40 103 58 80
173 19 11 20 40 21 29 24 19 26 35 154 20 158 12
69 28 16 30 22 31 13 33 13 53 30
57 17 403 138 17 139 8 128 379 38 25 142 17
407 17 22 21 9 22 30 37 25 142 37
107 18 713 27 34 48 29 49 513
907 32 1 34 103 42 82 56 7
30 25 7 32 14 156 21 150 28 42 43 56 54 157 11
16 32 67 40 82 41 43 56 60
201 29 12 44 29 45 38 46 27 47 4
394 29 28 43 29 54 29 46 8
289 29 14 43 38 50 8 51 19 47 26 61 39
66 43 27 44 8 52 16 54 10 55 30 47 2
563 43 4 45 26 46 2 55 8 67 26 70 7 59 30 61 12 69 29 71 2
205 27 21 39 29 50 24 51 13 49 40
242 39 513 48 40 51 22 63 462 75 46
54 27 23 29 31 45 8 48 24 51 18
147 45 19 48 13 49 22 50 18 61 23 62 19 63 8
859 46 16 53 12 54 16 55 19
296 28 3 33 13 36 30 52 12 54 17 55 19 57 29
139 28 49 29 14 44 29 46 10 52 16 53 17
683 46 30 47 8 52 19 53 19 57 2 59 45 60 3
642 40 7 41 54 42 60 146 25 147 52 150 2 148 84
115 33 25 53 29 55 2 58 10 65 24 60 38
138 33 36 34 80 57 10 64 30 65 32
387 47 30 55 45 67 31 60 49 68 1 74 10
70 55 3 57 38 59 49 64 20 65 6 66 14 74 23
405 45 39 47 12 51 23 70 32 62 18 73 6
363 51 19 61 18 95 5 63 59 73 48 100 15
312 49 462 51 8 62 59 100 20 75 429
1240 58 30 60 20 65 38 66 45
68 57 24 58 32 60 6 64 38
58 60 14 64 45 74 68
611 47 26 59 31 68 42 69 19
261 59 1 67 42 69 7 74 68 89 67
640 47 29 67 19 68 7 90 3 86 2 91 10 71 12 93 21 89 1
350 47 7 61 32 71 37 72 13 73 17
162 47 2 69 12 70 37 94 16 93 1 72 9 95 23 79 29
640 70 13 71 9 95 25 73 21
183 61 6 62 48 70 17 72 21 95 24
59 59 10 60 23 66 68 68 68
93 49 46 63 429 100 73 108 65
610 77 9 78 3 79 1 80 6
773 76 9 92 1 97 21 78 1 87 9 79 4
591 76 3 77 1 81 1 85 2 82 1 87 4 80 2
535 71 29 76 1 77 4 81 6 83 1 94 16 95 7 97 27 80 1
389 76 6 78 2 79 1 81 6
413 78 1 79 6 80 6 82 2 83 2 84 1
630 78 1 81 2 85 3 86 2 84 4 93 1
595 79 1 81 2 94 6 84 5 93 1
715 81 1 82 4 83 5 93 1
621 78 2 82 3 86 2 87 5 88 3
440 69 2 82 2 85 2 91 13 93 14 88 1
806 77 9 78 4 85 5 92 5 88 10
847 85 3 86 1 87 10 90 9 91 10 92 5
722 68 67 69 1 90 25 92 52
660 69 3 88 9 89 25 91 13 92 9
579 69 10 86 13 88 10 90 13
479 77 1 87 5 88 5 89 52 90 9 96 47 97 20
491 69 21 71 1 82 1 83 1 84 1 86 14 94 22
843 71 16 79 16 83 6 93 22
548 62 5 71 23 72 25 73 24 79 7 97 5 98 22 100 69
290 92 47 97 7 98 22 99 55
605 77 21 79 27 92 20 95 5 96 7 98 41
645 95 22 96 22 97 41 101 9 103 5 107 17 99 10 106 27 100 10
479 96 55 98 10 101 64
193 62 15 63 20 75 73 95 69 98 10 107 15 108 36
430 98 9 99 64 102 45 103 16 104 5 105 51
471 101 45 103 4 106 19 104 28
576 98 5 101 16 102 4 106 17
307 101 5 102 28 107 47 106 38 109 16 105 56
244 101 51 104 56 159 9 109 1 162 7 167 26 168 75
460 98 27 102 19 103 17 104 38 107 13
161 98 17 100 15 104 47 106 13 108 23 109 46
179 75 65 100 36 107 23 160 50 109 34
481 104 16 105 1 107 46 108 34 159 9 160 42
456 10 29 12 14 111 12 112 29 113 21 114 20 115 16
428 10 8 110 12 116 34 114 30
500 110 29 119 31 113 26 115 19
130 12 10 110 21 112 26 119 3 121 20
456 110 20 111 30 116 5 115 7 118 39
192 110 16 112 19 114 7 119 1 120 13 121 37 118 17 131 19
120 5 29 10 3 111 34 114 5 117 20 118 14
46 5 42 116 20 123 39 130 1 118 22 129 22
684 114 39 115 17 116 14 117 22 130 28 131 44 140 1
367 112 31 113 3 115 1 120 12 121 28
727 115 13 119 12 121 9
135 113 20 115 37 119 28 120 9 131 55
182 7 19 123 39 125 40 127 40
34 5 12 7 32 117 39 122 39 125 1 129 40
78 125 22 126 43 127 45 128 20
90 122 40 123 1 124 22 126 8 133 32 134 1 129 19 127 6 135 10
59 124 43 125 8 138 44 135 9 128 20
516 122 40 124 45 125 6 128 40
166 37 379 124 20 126 20 127 40 138 12
82 117 22 123 40 125 19 130 19 134 39
274 117 1 118 28 129 19 132 1 134 24 136 21 140 39
111 115 19 118 44 121 55 140 54 147 37 148 44
110 130 1 133 21 134 22 135 15 136 19 137 17
42 125 32 132 21 134 26 135 26
206 125 1 129 39 130 24 132 22 133 26
19 125 10 126 9 132 15 133 26 138 17 139 24 145 19 137 6 146 19 143 8
126 130 21 132 19 137 35 140 26 147 26
294 132 17 135 6 136 35 145 48 147 10
83 37 17 126 44 128 12 135 17 139 44
202 37 8 135 24 138 44 141 16 142 20 143 22
676 118 1 130 39 131 54 136 26 147 22
105 139 16 142 22 143 24 144 7
188 21 2 37 17 38 37 139 20 141 22 144 31
153 135 8 139 22 141 24 146 27 144 26 149 10
96 21 24 141 7 142 31 143 26 149 5 153 11 154 11 155 19
309 135 19 137 48 146 52 147 18
371 56 25 135 19 143 27 145 52 147 11 149 57 150 1
221 56 52 131 37 136 26 137 10 140 22 145 18 146 11 148 57
82 56 84 131 44 147 57
648 143 10 144 5 146 57 151 3 150 37 153 26
613 41 28 56 2 146 1 149 37 151 6 156 25 152 1
778 149 3 150 6 152 2 153 2
560 150 1 151 2 156 19 153 18 155 11
607 144 11 149 26 151 2 152 18 155 12
416 21 27 35 20 144 11 155 36 157 1 158 6
614 144 19 152 11 153 12 154 36 156 8 157 20
798 41 21 150 25 152 19 155 8 157 23
615 25 21 41 11 154 1 155 20 156 23 158 35
547 25 6 26 29 35 12 154 6 157 35
350 105 9 109 9 160 50 161 14 162 6 163 10 164 31
348 108 50 109 42 159 50 161 13
517 159 14 160 13 169 23 163 14
437 105 7 159 6 170 22 166 5 164 30 171 1 167 51
451 159 10 161 14 165 12 169 6 166 1 164 1
481 159 31 162 30 163 1 165 6 166 11
425 163 12 164 6 166 7
372 162 5 163 1 164 11 165 7 170 8 169 5
455 105 26 162 51 171 3 168 17 173 14 174 11
251 105 75 167 17 174 67
505 161 23 163 6 166 5 170 16 172 18
422 162 22 166 8 169 16 171 10 172 21
315 162 1 167 3 170 10 172 18 173 43
350 169 18 170 21 171 18
298 167 14 171 43 175 33 174 25
368 167 11 168 67 173 25 175 51
141 173 33 174 51
