177 484 11
778 2 83 3 127 4 26 5 50 6 8
208 1 83 22 95 5 55 23 10
348 1 127 24 143 6 18 21 24
168 1 26 5 10 76 11 6 28 20 38
198 1 50 2 55 4 10 76 27 23 4
103 1 8 3 18 4 28 12 22 20 27 21 27
189 8 4 9 50 10 38
149 7 4 10 133 68 989
61 7 50 69 40 10 13 70 50
68 7 38 8 133 9 13 69 8 68 66 71 52
893 12 83 13 49 14 51 15 15
513 6 22 11 83 18 37 13 44 19 45 15 2 20 44 21 5
544 11 49 12 44 16 15 17 3 27 216 29 50 14 11 34 638 35 671 19 126
1695 11 51 13 11 16 29 17 24 15 15
651 11 15 12 2 14 15 18 20 17 37 28 146 24 169
1641 13 15 14 29 17 27
1740 13 3 14 24 15 37 16 27 28 57 29 28
379 12 37 15 20 24 10 21 22
42 12 45 13 126 35 238 76 14 20 91
47 4 38 6 27 12 44 19 91 76 5
525 3 24 6 27 12 5 18 22 24 18
159 2 95 72 12 73 25 70 68 23 6
191 2 10 5 4 22 6 72 23 74 15 76 28
788 3 143 15 169 18 10 21 18
125 26 20 27 29 28 22 29 8 30 2 31 3
475 25 20 28 19 30 1 32 31
1483 13 216 25 29 29 35 31 7 33 122 34 135
597 15 146 17 57 25 22 26 19 29 28 32 187
252 13 50 17 28 25 8 27 35 28 28
1258 25 2 26 1 48 1 47 1 53 18 31 7 32 10 54 10
208 25 3 27 7 30 7 48 3 50 22 33 21
894 26 31 28 187 30 10 54 215
1196 27 122 31 21 50 32 34 78
264 13 638 27 135 33 78 49 28 50 26 55 17 41 7 56 23 59 395 35 288 60 284 61 499
61 13 671 19 238 34 288 74 69 68 1261 76 24
1091 37 5 38 5 39 6 40 2 41 1 42 3
999 36 5 38 4 43 6 41 1
513 36 5 37 4 43 1 44 9 42 1
814 36 6 40 3 45 3 42 4
938 36 2 39 3 46 6 45 2 47 2 41 1
543 34 7 36 1 37 1 40 1 48 2 46 8 49 22 43 27 55 1
1359 36 3 38 1 39 4 51 43 45 1 44 225 54 174
1316 37 6 38 1 41 27 55 14 44 23
536 38 9 42 225 43 23 55 84 58 178
1288 39 3 40 2 42 1 51 4 47 3 52 2
977 40 6 41 8 48 5 47 6
1315 30 1 40 2 45 3 46 6 48 12 52 14 53 1
237 30 1 31 3 41 2 46 5 47 12 49 11 50 14
550 34 28 41 22 48 11 50 24
640 31 22 33 32 34 26 48 14 49 24
1292 42 43 45 4 52 3 53 7 54 36
216 45 2 47 14 51 3 53 16
932 30 18 47 1 51 7 52 16 54 4
903 30 10 32 215 42 174 51 36 53 4
319 34 17 41 1 43 14 44 84 56 61 57 6 58 66
729 34 23 55 61 62 7 57 8 59 50
43 55 6 56 8 62 76 65 14 63 60 58 24
282 44 178 55 66 57 24 65 46 67 260 107 48
61 34 395 56 50 62 338 63 66 60 29
56 34 284 59 29 64 26 65 15 63 380 66 504 145 52 148 38 61 88
800 34 499 60 88 79 270 80 62 81 3 95 796 148 301 150 127 152 52 93 91 96 30 99 14
124 56 7 57 76 59 338 63 271
86 57 60 59 66 60 380 62 271 65 27
32 60 26 65 29 66 44 67 35
83 57 14 58 46 60 15 63 27 64 29 67 1
152 60 504 64 44 145 544 67 13 146 7
191 58 260 64 35 65 1 66 13 146 238 107 33
334 8 989 10 66 35 1261 74 33 75 49 71 83
59 9 40 10 8 71 46 70 26
50 9 50 22 68 69 26 73 37 71 1
248 10 52 68 83 69 46 70 1 75 8 73 5
170 22 12 23 23 74 15 75 20 73 10
739 22 25 70 37 71 5 72 10 75 33
18 23 15 35 69 68 33 72 15 75 41 76 16
150 68 49 71 8 72 20 73 33 74 41
125 4 11 5 27 19 14 20 5 23 28 35 24 74 16
136 78 21 79 1 80 14 81 23 82 29 83 21 84 14
238 77 21 90 25 80 6 92 36 84 15 93 43
626 61 270 77 1 81 2 82 24 95 312 96 36 97 1 98 10
93 61 62 77 14 78 6 81 32 93 93
699 61 3 77 23 79 2 80 32 99 9 98 30
103 77 29 79 24 109 3 83 24 111 18 112 3 113 31 95 25
388 77 21 82 24 109 19 84 23
242 77 14 78 15 83 23 102 14 109 18 92 12
94 86 79 87 56 88 165 89 244
88 85 79 107 334 108 8 88 167 89 114
311 85 56 90 37 101 21 91 22 105 73 119 12 94 14 108 33 120 68 88 15 89 7
68 85 165 86 167 87 15 108 44
106 85 244 86 114 87 7 119 379
46 78 25 87 37 91 60 92 42 93 27 94 49
214 87 22 90 60 100 52 101 42 102 20 92 14
44 78 36 84 12 90 42 91 14 102 21
216 61 91 78 43 80 93 90 27 152 17 94 146
165 87 14 90 49 93 146 152 166 120 60
409 61 796 79 312 82 25 113 109 117 291
1173 61 30 79 36 99 4 97 20
1145 79 1 96 20 99 3 98 22
1087 79 10 81 30 97 22 99 1
742 61 14 81 9 96 4 97 3 98 1
113 91 52 101 14 102 9 103 48 104 8
62 87 21 91 42 100 14 103 46 105 81 106 23
177 84 14 91 20 92 21 100 9 109 14 110 32 111 1 104 34
164 100 48 101 46 104 56 114 18 106 7
117 100 8 102 34 103 56 111 11 130 1 115 72 114 3
285 87 73 101 81 126 58 106 72 119 20 127 1
223 101 23 103 7 105 72 114 47 138 70 137 33 127 41 139 52
134 58 48 67 33 86 334 146 210 151 45 149 51 108 7
573 86 8 87 33 88 44 107 7 151 58 153 24 120 46
723 82 3 83 19 84 18 102 14 110 25 111 13
466 102 32 109 25 111 34
932 82 18 102 1 104 11 109 13 110 34 112 40 115 4 116 31
101 82 3 111 40 113 48 117 27 116 34 118 20
63 82 31 95 109 112 48 117 123
162 103 18 104 3 106 47 130 24 122 37 137 72
164 104 72 111 4 130 58 131 13 116 7
140 111 31 112 34 115 7 121 1 131 15 122 1 118 50
52 95 291 112 27 113 123 124 123 125 34 118 1
181 112 20 116 50 117 1 121 50 125 19 128 11 123 12
137 87 12 89 379 105 20 126 134 127 259
345 87 68 94 60 108 46 152 4 153 32
524 116 1 118 50 122 38 123 51
258 114 37 116 1 121 38 130 12 131 48 123 3 135 2 136 29 137 10
727 118 12 121 51 122 3 128 33 133 21 136 26
25 117 123 125 35
172 117 34 118 19 124 35 128 20 129 32
944 105 58 119 134 127 146
96 105 1 106 41 119 259 126 146 138 201 140 185
240 118 11 123 33 125 20 132 29 129 47 133 1 134 35
308 125 32 128 47 134 19
63 104 1 114 24 115 58 122 12 131 38
123 115 13 116 15 122 48 130 38
427 128 29 133 16 136 39 134 34
483 123 21 128 1 132 16 136 13
478 128 35 129 19 132 34 135 28 136 28 141 23
60 122 2 134 28 136 55 137 85 141 6 139 113
846 122 29 123 26 132 39 133 13 134 28 135 55
311 106 33 114 72 122 10 135 85 139 6
103 106 70 127 201 139 24 140 240
85 106 52 135 113 137 6 138 24 141 33 140 82 142 112 144 16
155 127 185 138 240 139 82 159 227 144 242
519 134 23 135 6 139 33 142 85 143 65
38 139 112 141 85 172 37 143 46 144 56
16 141 65 142 46 172 56 170 64
1039 139 16 140 242 142 56 159 108 172 50 169 46 171 1 161 199
495 60 52 66 544 147 122 148 482 146 28
247 66 7 67 238 107 210 145 28 147 51 149 41
188 145 122 146 51 148 100 149 56
131 60 38 61 301 145 482 147 100 150 335 149 39
148 107 51 146 41 147 56 148 39 150 27 151 72
131 61 127 148 335 149 27 151 23 152 219
106 107 45 108 58 149 72 150 23 152 27 153 32
101 61 52 93 17 94 166 120 4 150 219 151 27 153 23
119 108 24 120 32 151 32 152 23
388 155 88 156 106 157 85 158 11
511 154 88 159 19 160 52 163 139 164 50 156 24 157 101
196 154 106 155 24 170 19 158 87
304 154 85 155 101 159 71 161 163 158 31
242 154 11 156 87 157 31 170 36 171 68 161 33
229 140 227 144 108 155 19 157 71 160 148 161 36 162 315
265 155 52 159 148 165 85 163 12 162 90
962 144 199 157 163 158 33 159 36 171 43
298 159 315 160 90 165 53 166 61 175 346
378 155 139 160 12 165 61 164 86
1280 155 50 163 86 165 72 166 73
374 160 85 162 53 163 61 164 72 166 137
617 162 61 164 73 165 137 173 68 174 50 175 108
172 168 26 169 33 170 16 171 7
176 167 26 172 31 169 4 170 20
1224 144 46 167 33 168 4 172 26 171 32
44 143 64 156 19 158 36 167 16 168 20 172 6 171 52
218 144 1 158 68 161 43 167 7 169 32 170 52
912 142 37 143 56 144 50 168 31 169 26 170 6
1090 166 68 176 1 174 40 177 192
792 166 50 173 40 176 11 175 44
834 162 346 166 108 174 44 176 3 177 207
626 173 1 174 11 175 3 177 12
538 173 192 175 207 176 12
