429 1147 11
220 2 13 3 23 4 23
35 1 13 6 3 3 33 8 40
119 1 23 2 33 6 22 9 18 4 18
131 1 23 3 18 9 31 11 9 13 13 14 41 15 1
52 6 3 7 20 8 23
232 2 3 3 22 5 3 7 32 9 20 10 3 11 6 8 12
60 5 20 6 32 10 26
200 2 40 5 23 6 12
105 3 18 4 31 6 20 11 27
108 6 3 7 26 11 28 12 10
122 4 9 6 6 9 27 10 28 12 11 15 34
393 10 10 11 11 15 27 26 10 27 19
56 4 13 23 14 14 23 15 15 28 16 25 19
70 4 41 13 23 16 13 23 12 17 15 18 3
161 4 1 11 34 12 27 13 15 26 6 28 35
36 14 13 17 28 18 24 19 10 20 1
72 14 15 16 28 21 31 19 5
113 14 3 16 24 23 22 24 1 29 8 20 10
43 16 10 17 5 21 20 30 19 22 7 20 10
133 16 1 18 10 19 10 30 22 29 23 96 1 104 9 101 7
23 17 31 19 20 22 1
112 19 7 21 1 30 29 97 19
116 13 14 14 12 18 22 24 12 25 3
116 18 1 23 12 31 9 25 12 29 13
143 13 19 23 3 24 12 28 11 36 8 31 16
74 12 10 15 6 28 8 27 31 32 16 33 6 34 20 35 1
45 12 19 26 31 35 33
112 13 16 15 35 25 11 26 8 36 21 34 14
145 18 8 20 23 24 13 39 6 31 1 40 11 101 2 100 1
87 19 19 20 22 22 29 96 8 97 3
377 24 9 25 16 29 1 36 2 39 21 37 3
322 26 16 98 20 33 20 34 8
104 26 6 32 20 98 10 35 21 106 11 107 11 103 9
75 26 20 28 14 32 8 36 26 98 8 102 13 38 1
210 26 1 27 33 33 21 108 19 106 5
119 25 8 28 21 31 2 34 26 37 25 38 6
75 31 3 36 25 39 5 40 13 99 19 38 11
135 34 1 36 6 37 11 99 20 102 31 59 12 57 6 48 21
563 29 6 31 21 37 5 40 18
88 29 11 37 13 39 18 99 1 100 22
135 42 10 43 29 44 23 45 2 46 33 47 3 48 1
387 41 10 54 10 55 19 56 2 45 11 57 8 48 17
253 41 29 44 34 59 16 48 42
301 41 23 43 34 47 32 73 28
668 41 2 42 11 66 8 56 6 67 1 46 9
452 41 33 45 9 66 12 70 10 47 20
89 41 3 44 32 46 20 70 26 81 5 90 41 91 3 73 6
129 38 21 41 1 42 17 43 42 59 17 57 31
45 50 19 51 20 52 16 53 6
31 49 19 53 9
37 49 20 52 6 71 23 72 9
112 49 16 51 6 64 19 65 3 72 20 53 23 63 11
210 49 6 50 9 52 23 63 3
443 42 10 55 7 58 10 56 9
317 42 19 54 7 58 1 60 12 61 1 57 15 62 19 63 2
674 42 2 45 6 54 9 58 2 67 5
79 38 6 42 8 48 31 55 15 102 11 109 35 61 1
161 54 10 55 1 56 2 66 2 60 10 67 1 68 11 69 7
83 38 12 43 16 48 17 104 17 99 21 101 17 100 10 105 3
116 55 12 58 10 65 11 74 2 69 8 62 10
45 55 1 57 1 109 18 103 17 111 22 63 19
125 55 19 60 10 64 13 65 3 63 19
107 52 11 53 3 55 2 61 19 62 19 64 18 111 20
173 52 19 62 13 63 18 65 20
48 52 3 60 11 62 3 64 20 74 24 72 8
631 45 8 46 12 58 2 67 7 68 11 70 1
719 45 1 56 5 58 1 66 7
744 58 11 66 11 70 20 69 17 75 4
99 58 7 60 8 68 17 74 27 75 20
375 46 10 47 26 66 1 68 20 81 3 75 17
78 51 23 72 8 76 3 77 21 78 13
41 51 9 52 20 65 8 71 8 74 6 79 18 76 15
894 44 28 47 6 179 21 91 43 95 61 181 9 199 1 200 12
142 60 2 65 24 69 27 72 6 79 19 80 6 75 2
294 68 4 69 20 70 17 74 2 87 15 81 19 80 10 88 7
90 71 3 72 15 79 16 77 8 83 12 82 12
65 71 21 76 8 78 10 83 17 84 1
117 71 13 77 10 84 29 85 4
52 72 18 74 19 76 16 80 25 82 5
49 74 6 75 10 79 25 92 22 88 10 82 12
115 47 5 70 3 75 19 87 13 89 11 90 29
114 76 12 79 5 80 12 83 10 169 8 92 11 86 14 174 1 172 10
47 76 12 77 17 82 10 84 15 86 13
29 77 1 78 29 83 15 85 19 86 17
104 78 4 84 19 86 15
140 82 14 83 13 84 17 85 15 174 31
129 75 15 81 13 88 22 89 16
66 75 7 80 10 87 22 170 1 92 16 173 15 89 6
117 81 11 87 16 88 6 173 8 90 5 176 16 175 8 177 9
114 47 41 81 29 89 5 178 20 91 23 177 18
606 47 3 73 43 90 23 179 33 178 29 180 6
78 80 22 82 11 88 16 169 10 170 11
281 94 21
67 93 21 95 48
153 73 61 94 48 200 18 149 8
62 20 1 30 8 104 49 97 36 105 20
132 22 19 30 3 96 36 110 30 105 9
75 32 20 33 10 34 8 102 26 103 11
104 37 19 38 20 40 1 59 21 100 9
101 29 1 40 22 59 10 99 9 101 22
130 20 7 29 2 59 17 100 22 104 34
109 34 13 38 31 57 11 98 26 109 11 103 3
372 33 9 61 17 98 11 102 3 107 15 109 22 111 1
107 20 9 59 17 96 49 101 34 105 3
90 59 3 96 20 97 9 104 3 110 28
182 33 11 35 5 108 23 107 27
138 33 11 103 15 106 27 111 15
42 35 19 106 23
350 57 35 61 18 102 11 103 22
112 97 30 105 28
142 61 22 63 20 103 1 107 15
202 113 2 114 13 115 31 116 2 117 11 118 3 119 4 120 20
74 112 2 114 32 119 17 153 25
198 112 13 113 32 115 10
42 112 31 114 10 116 14 162 6
153 112 2 115 14 128 23 130 4 162 12 132 5 118 31 164 1
130 112 11 197 2 215 20 207 28 119 11 120 6
207 112 3 116 31 120 29 164 8 208 8
120 112 4 113 17 117 11 215 15 153 3
384 112 20 117 6 118 29 191 7 207 22 208 1
751 122 12 123 12 124 6 125 13 126 23 127 12
327 121 12 129 2 124 11 148 18 127 23
331 121 12 124 15 125 9 157 5 158 13 159 9
111 121 6 122 11 123 15 148 9 157 11 161 11
292 121 13 123 9 150 17 158 29 126 9 151 3 163 5
146 121 23 125 9 206 18 127 2 163 23
63 121 12 122 23 126 2 129 1 209 20 206 15 131 3 210 9
852 116 23 129 19 130 10 131 14 132 1
211 122 2 127 1 128 19 130 14 148 17 131 8
287 116 4 128 10 129 14 148 9 160 2 161 13 162 25
988 127 3 128 14 129 8 132 18 210 6
755 116 5 128 1 131 18 213 5 210 5 164 11
745 134 1 135 24 136 6 137 27
427 133 1 150 9 135 31 154 8 155 13 152 13
526 133 24 134 31 136 3 155 1 156 12
763 133 6 135 3 137 17 143 10 156 14
1045 133 27 136 17 138 10 142 26 143 7
1439 137 10 139 13 140 27 141 7 142 22 143 1 144 47
117 138 13 145 3 141 29 146 24 149 9 147 34 144 14
65 138 27 141 21 142 29
249 138 7 139 29 140 21 146 3
1912 137 26 138 22 140 29 167 22
612 136 10 137 7 138 1 211 1 204 3 202 1 203 13 155 19 156 22 144 21
63 138 47 139 14 143 21 211 47 149 1 205 10
191 139 3 146 61 147 31
265 139 24 141 3 145 61
203 139 34 145 31 214 42 149 13
241 122 18 124 9 129 17 130 9 161 2
374 95 8 139 9 144 1 147 13 200 39 214 5 205 26
136 125 17 134 9 151 20 152 17
80 125 3 150 20 196 13 154 3 163 32 152 22
117 134 13 150 17 151 22 154 30
252 113 25 119 3 215 18
264 134 8 151 3 152 30 189 13 182 9 201 19 196 9 212 8 155 1
583 134 13 135 1 143 19 154 1 212 19 203 11 156 1
734 135 12 136 14 143 22 155 1
382 123 5 124 11 160 1 161 12 165 9 166 8 159 14
353 123 13 125 29 159 28
476 123 9 157 14 158 28 165 12
125 130 2 157 1 161 14 166 19 162 17
297 124 11 130 13 148 2 157 12 160 14
174 115 6 116 12 130 25 160 17 166 20
72 125 5 126 23 151 32 206 16 196 6
588 116 1 118 8 132 11 213 12 208 13
290 157 9 159 12 166 36
264 157 8 160 19 162 20 165 36
1425 142 22 168 35
476 167 35
130 82 8 92 10 170 18 171 19 172 30
59 88 1 92 11 169 18 173 20 171 9
181 169 19 170 9 173 6 175 10 193 24 184 15 172 2 194 5
37 82 10 169 30 171 2 174 36 190 9 193 9 187 2 192 7
95 88 15 89 8 170 20 171 6 175 15
129 82 1 86 31 172 36 187 6 188 1
41 89 8 171 10 173 15 183 6 176 12 184 14
85 89 16 175 12 183 10 177 10 185 16
242 89 9 90 18 176 10 178 29 189 4 185 17
791 90 20 91 29 177 29 189 6 180 20
579 73 21 91 33 180 3 181 32 182 16
955 91 6 178 20 179 3 189 26 182 29
265 73 9 179 32 182 10 199 18 201 16 202 23 203 8
1607 154 9 179 16 180 29 181 10 189 3 201 23
771 175 6 176 10 184 7 185 2 186 14
55 171 15 175 14 183 7 186 4 198 11 194 12
127 176 16 177 17 183 2 189 12 186 12 196 12
101 183 14 184 4 185 12 198 16 196 7
91 172 2 174 6 190 37 188 32 191 1 197 7
152 174 1 187 32 197 27
665 154 13 177 4 178 6 180 26 182 3 185 12 196 26
141 172 9 187 37 191 12 192 31
280 120 7 187 1 190 12 192 10 197 10 207 11 208 27
179 172 7 190 31 191 10 193 35 213 6 195 1 208 3
110 171 24 172 9 192 35 194 3 195 29
134 171 5 184 12 193 3 198 22 209 8 206 15 195 26
179 192 1 193 29 194 26 209 23 213 3 210 3
176 151 13 154 9 163 6 185 12 186 7 189 26 198 13 206 16
264 117 2 187 7 188 27 191 10 207 21
77 184 11 186 16 194 22 196 13 206 13
277 73 1 181 18 200 23 204 18 202 22
96 73 12 95 18 149 39 199 23 204 6 205 22
159 154 19 181 16 182 23 212 17 203 9
569 143 1 181 23 199 22 204 18 203 21
937 143 13 155 11 181 8 201 9 202 21 212 12
207 143 3 199 18 200 6 202 18 211 24 205 13
107 144 10 149 26 200 22 204 13 211 30
446 126 18 127 15 163 16 194 15 196 16 198 13 209 2
248 117 28 120 22 191 11 197 21
414 118 8 120 1 164 13 191 27 192 3 213 13
106 127 20 194 8 195 23 206 2 210 23
197 127 9 131 6 132 5 195 3 209 23 213 20
159 143 1 144 47 204 24 205 30
582 154 8 155 19 201 17 203 12
51 132 5 164 12 192 6 195 3 208 13 210 20
70 147 42 149 5
284 117 20 119 15 153 18
1313 217 5 218 6 219 5 220 4 221 5
531 216 5 218 15 222 1 223 18 221 1 224 14 225 17
995 216 6 217 15 222 9 220 9
1619 216 5 269 5 220 4 221 3 278 3 270 5
1013 216 4 218 9 219 4 222 13 246 8 278 7
769 216 5 217 1 219 3 269 2 224 7
763 217 1 218 9 220 13 246 8 247 11 225 1 248 13
255 217 18 226 1 228 20 252 6 224 10 230 25 282 3 225 5
1000 217 14 221 7 223 10 269 3 286 1 271 11 282 9
162 217 17 222 1 223 5 252 26 256 5 248 15 391 14
119 223 1 227 7 228 18 229 20 230 4 231 5
219 226 7 229 5 249 21 231 20 250 15 251 10
279 223 20 226 18 252 6 231 21
60 226 20 227 5 264 18 249 2 230 10 267 6
212 223 25 226 4 229 10 282 23 267 21
719 226 5 227 20 228 21 252 24 255 7 251 14
209 233 17 234 17
313 232 17 236 25 234 4 253 30
198 232 17 233 4 235 20 236 9 239 26
548 234 20 236 17 237 6 238 31 239 4
175 233 25 234 9 235 17 237 22 253 6 254 7
268 235 6 236 22 240 14 238 4 244 23 254 17
294 235 31 237 4 240 18 243 9 239 8 268 13
375 234 26 235 4 238 8 268 18 295 1 296 49
1240 237 14 238 18 241 12 242 21 243 5 244 1 245 13
1063 240 12 257 7 258 5 242 19 260 9 245 18 259 10
617 240 21 241 19 258 15 261 17 243 14
1478 238 9 240 5 242 14 261 18 268 18 291 4 295 3
162 237 23 240 1 382 8 384 4 389 17 385 5 381 8 245 18 254 7
1260 240 13 241 18 244 18 260 21 385 7
475 220 8 222 8 257 19 258 15 262 5 278 6 247 1
387 222 11 246 1 257 12 248 16 259 1 392 8
843 222 13 225 15 247 16 392 9 391 15
92 227 21 229 2 264 9 279 12 266 23 250 3
218 227 15 249 3 279 25 251 29 281 6
441 227 10 231 14 250 29 386 8 281 21
592 223 6 225 26 228 6 231 24 255 17 256 14
187 233 30 236 6 380 39 381 10 254 13
825 236 7 237 17 244 7 253 13 381 19
667 231 7 252 17 379 22 256 19
445 225 5 252 14 255 19 379 5 376 5 387 17 391 4
255 241 7 246 19 247 12 258 11 259 25
480 241 5 242 15 246 15 257 11 261 10 262 20 263 10
171 241 10 247 1 257 25 260 11 392 16
623 241 9 245 21 259 11 385 26
533 242 17 243 18 258 10 290 9 291 28 263 16
220 246 5 258 20 292 4 293 3 278 11 263 14
286 258 10 261 16 262 14 292 12 290 21 294 1
254 229 18 249 9 265 14 266 5 267 8
309 264 14 284 30 266 4 267 24 285 1
137 249 23 264 5 265 4 279 1 280 24 284 17 283 1
165 229 6 230 21 264 8 265 24 282 1 297 25 285 3
381 238 13 239 18 243 18 295 18
1007 219 5 221 2 224 3 270 1 271 6
1564 219 5 269 1 286 1 278 12 287 7 271 4
1443 224 11 269 6 270 4 286 13 287 1
74 273 24 274 62 275 29 276 44 277 10
514 272 24 279 28 280 16 275 1 277 39 281 1
18 272 62 276 18 303 18 304 20 305 28 306 25 277 15
634 272 29 273 1 280 34 309 3 283 30 276 14
112 272 44 274 18 275 14 309 11 316 24 317 3 310 15 303 43
285 272 10 273 39 274 15 305 32 281 26
770 219 3 220 7 246 6 262 11 270 12 286 3 293 13 289 1
1036 249 12 250 25 266 1 273 28 280 16 281 5
218 266 24 273 16 275 34 279 16 283 3
115 250 6 251 21 273 1 277 26 279 5 386 36 305 5
321 223 3 224 9 230 23 267 1 286 5 288 25 297 7 298 29
795 266 1 275 30 280 3 284 17 309 30 285 6
288 265 30 266 17 283 17 285 24
89 265 1 267 3 283 6 284 24 297 1 309 6 311 21 314 23
50 224 1 270 1 271 13 278 3 282 5 287 8 288 13 289 6
1242 270 7 271 1 286 8
753 282 25 286 13 289 16 302 20 298 1
314 278 1 286 6 288 16 293 16 294 4 302 10
646 261 9 263 21 291 25 299 13 294 17 300 27
474 243 4 261 28 290 25 295 12 301 41 300 2
824 262 4 263 12 293 14 294 10
1729 262 3 278 13 289 16 292 14 294 5
465 263 1 289 4 290 17 292 10 293 5 299 11 302 2
617 239 1 243 3 268 18 291 12 301 11 296 7
393 239 49 295 7 301 64 315 10 340 20 341 82
166 267 25 282 7 285 1 313 17 298 21 314 23
508 282 29 288 1 297 21 323 8 313 18 302 6 326 1
252 290 13 294 11 300 20 302 22 307 10
264 290 27 291 2 299 20 301 26 315 58 307 24
225 291 41 295 11 296 64 300 26 315 8
215 288 20 289 10 294 2 298 6 299 22 326 14 307 4
445 274 18 276 43 316 25 342 8 319 18
618 274 20 369 49 364 24 373 39 305 39 306 33
255 274 28 277 32 281 5 304 39 386 23 373 24
748 274 25 304 33 365 10 369 28 370 52
75 299 10 300 24 302 4 315 4 325 10 326 22 338 2
258 309 21 310 2 311 18 312 23
105 275 3 276 11 283 30 285 6 308 21 310 9 311 2
674 276 15 308 2 309 9 317 10 329 8 333 1 334 3 312 12
83 285 21 308 18 309 2 320 9 327 5 312 1 314 3 322 3
133 308 23 310 12 311 1 327 20 329 7
279 297 17 298 18 323 16 324 22 321 1 314 17 332 4
69 285 23 297 23 311 3 313 17 320 35 321 1
31 296 10 300 58 301 8 307 4 338 10 339 19 340 66
477 276 24 303 25 317 7 318 21 319 10
142 276 3 310 10 316 7 328 3 333 6 331 4 318 5
447 316 21 317 5 331 20 319 9 336 9
255 303 18 316 10 318 9 342 21 352 21 336 3
256 311 9 314 35 321 30 322 9
164 313 1 314 1 320 30 343 24 332 14 322 12
319 311 3 320 9 321 12 327 22 330 18 343 11 337 1
201 298 8 313 16 324 15 325 13 326 26
76 313 22 323 15 325 8 332 23 338 5 344 15
156 307 10 323 13 324 8 326 9 338 28
68 298 1 302 14 307 22 323 26 325 9
284 311 5 312 20 322 22 328 10 329 2 330 12 331 1
263 317 3 327 10 329 8 333 1 334 2 331 18
585 310 8 312 7 327 2 328 8 334 4
313 322 18 327 12 331 5 335 20 336 22 337 11
417 317 4 318 20 327 1 328 18 330 5 336 9
98 313 4 321 14 324 23 343 8 347 12 344 19 337 8 351 11
405 310 1 317 6 328 1 334 5
485 310 3 328 2 329 4 333 5
104 330 20 345 10 347 5 336 15 337 1 355 10 349 22
99 318 9 319 3 330 22 331 9 335 15 352 28 355 7
77 322 1 330 11 332 8 335 1 343 28 347 30
48 307 2 315 10 324 5 325 28 339 9 344 7 356 18
54 315 19 338 9 340 26 356 30
60 296 20 315 66 339 26 341 93 356 1 401 11
55 296 82 340 93 405 206 401 20
201 303 8 319 21 352 19 353 35 354 6
113 321 24 322 11 332 8 337 28
27 324 15 332 19 338 7 351 27 356 19
121 335 10 346 12 347 4 348 2 349 8 350 12
144 345 12 347 31 351 19 350 23
76 332 12 335 5 337 30 345 4 346 31 351 1
75 345 2 402 32 349 8 350 36 403 14 406 13
158 335 22 345 8 348 8 402 15 355 14
124 345 12 346 23 348 36 351 12 406 2
16 332 11 344 27 346 19 347 1 350 12 356 1 406 46
332 319 21 336 28 342 19 355 22 354 6
315 342 35 399 15 354 10
128 342 6 352 6 353 10 399 10 355 24 409 27 400 22 404 2
328 335 10 336 7 349 14 352 22 354 24 402 9 404 33
23 338 18 339 30 340 1 344 19 351 1 406 9 401 19
490 358 53
1330 357 53 359 52 360 18
771 358 52 360 11
325 358 18 359 11 367 16 368 20
225 362 5 363 44 364 28
90 361 5 365 9 363 38 366 26
137 361 44 362 38 365 25 369 27 364 3
272 304 24 361 28 363 3 369 38 373 7
95 306 10 362 9 363 25 366 20 369 30 370 37
190 362 26 365 20 370 29
514 360 16 368 27 371 14 372 26
811 360 20 367 27 371 34
176 304 49 306 28 363 27 364 38 365 30
192 306 52 365 37 366 29
694 367 14 368 34 380 44 372 2
985 367 26 371 2 380 11 384 10 389 31 381 14
103 304 39 305 24 364 7 386 21
891 375 25 376 8 377 24 378 1
987 374 25 379 30 376 22
660 256 5 374 8 375 22 379 1 378 9 387 16
1025 374 24 378 27
1357 374 1 376 9 377 27 387 7 392 1 391 12
1381 255 22 256 5 375 30 376 1
432 253 39 371 44 372 11 381 13
115 244 8 253 10 254 19 372 14 380 13 389 14
890 244 8 383 12 384 17 385 20
1002 382 12 384 1 388 7
1287 244 4 372 10 382 17 383 1 389 20 388 6
688 244 5 245 7 260 26 382 20
67 251 8 281 36 305 23 373 21
1319 256 17 376 16 378 7 391 20
1089 383 7 384 6 390 8
592 244 17 372 31 381 14 384 20
952 388 8
1176 225 14 248 15 256 4 378 12 387 20 392 7
227 247 8 248 9 259 16 378 1 391 7
44 394 42 395 42 396 20
87 393 42 397 54 395 3 396 15 398 28
40 393 42 394 3 396 12 427 5
22 393 20 394 15 395 12 429 25 427 23 398 39
127 394 54 398 506
100 394 28 396 39 397 506 419 104 416 199 429 36
297 353 15 354 10 400 32
263 354 22 399 32 415 3 409 18
83 340 11 341 20 356 19 406 57 405 37 408 21
78 348 32 349 15 355 9 403 39 404 2
124 348 14 402 39 406 6 404 17 407 53
77 354 2 355 33 402 2 403 17 409 8 413 31 417 3 407 13
37 341 206 401 37 408 11 416 221
44 348 13 350 2 351 46 356 9 401 57 403 6 407 11 408 12
55 403 53 404 13 406 11 417 32 423 16 408 29 426 14
46 401 21 405 11 406 12 407 29 418 30 428 40 426 3 419 4 416 18
156 354 27 400 18 404 8 410 21 415 4 412 23 413 12
214 409 21 411 23 412 15 413 7 414 1
237 410 23 420 14 414 13 421 1
72 409 23 410 15 415 27
184 404 31 409 12 410 7 420 2 414 9 417 24
211 410 1 411 13 413 9 420 12
225 400 3 409 4 412 27
17 398 199 405 221 408 18 418 83 419 58
319 404 3 407 32 413 24 420 19 422 31 421 3 423 2
53 408 30 416 83 419 78
29 398 104 408 4 416 58 418 78 428 42 429 30
272 411 14 413 2 414 12 417 19 421 22
111 411 1 417 3 420 22 422 13 425 24
106 417 31 421 13 424 9 423 35 425 19
154 407 16 417 2 422 35 424 26 426 51 427 11
26 422 9 423 26 425 11 427 20
48 421 24 422 19 424 11
64 407 14 408 3 423 51 428 61 429 30 427 8
135 395 5 396 23 423 11 424 20 426 8 429 32
77 408 40 419 42 426 61 429 8
60 396 25 398 36 419 30 426 30 427 32 428 8
