246 684 11
63 2 20 3 25 4 23 5 11 6 1
105 1 20 5 52 6 65
138 1 25 10 55 4 6 11 51 6 16 12 21
52 1 23 3 6 10 16 13 22 5 14 18 5
54 1 11 2 52 4 14 18 57 21 7
366 1 1 2 65 3 16 11 32
323 8 183 9 46
329 7 183 16 136 9 32 17 1
189 7 46 8 32 16 13 30 84
215 3 55 4 16 13 7 14 18 15 54 12 28
312 3 51 6 32 12 58
176 3 21 10 28 11 58
117 4 22 10 7 14 17 19 20 18 25 20 1
91 10 18 13 17 19 14 15 33 22 12 23 1
142 10 54 14 33 24 31 25 5 23 1
139 8 136 9 13 17 32 29 2 30 3 31 67 32 86
539 8 1 16 32 26 49 29 65 27 19
141 4 5 5 57 13 25 21 64 20 1
155 13 20 14 14 20 22 22 32
263 13 1 18 1 19 22 21 61 22 10 36 27 34 21
279 5 7 18 64 20 61 33 60 34 10
28 14 12 19 32 20 10 36 17 23 33
117 14 1 15 1 22 33 24 43 41 1 45 7 36 26 35 19
101 15 31 23 43 25 56 35 6
176 15 5 24 56 39 29 35 19
333 17 49 27 18 28 43
295 17 19 26 18 29 73 32 18 28 75
435 26 43 27 75 32 17 57 83
665 16 2 17 65 27 73 32 127
281 9 84 16 3 31 54 37 12 38 51
248 16 67 30 54 32 46 37 74
80 16 86 27 18 28 17 29 127 31 46 57 13 37 50
347 21 60 146 17 147 50 148 8 34 1
42 20 21 21 10 33 1 40 13 36 26 42 14 148 43 43 16
770 23 19 24 6 25 19 41 20 39 2 47 30 46 4 55 21 155 9
32 20 27 22 17 23 26 34 26 45 25 42 10
223 30 12 31 74 32 50 57 34 156 13 82 90 38 10
336 30 51 37 10 156 16 157 24 85 49
718 25 29 35 2 47 35 48 38 49 19 50 1 51 6
168 34 13 41 1 42 15 43 10 44 17
1076 23 1 35 20 40 1 45 32 42 7 46 26 44 7
135 34 14 36 10 40 15 41 7 45 16
215 34 16 40 10 148 20 175 1 182 2 150 17 44 10
408 40 17 41 7 43 10 46 17 153 5 163 9 182 7
377 23 7 36 25 41 32 42 16
441 35 4 41 26 44 17 153 9 154 1 155 29
162 35 30 39 35 55 17 50 17
256 39 38 49 57 51 46 158 4 145 4
299 39 19 48 57 52 71 54 1 145 46
201 39 1 47 17 167 18 55 22 51 34 169 14
86 39 6 48 46 50 34 158 13 169 29
221 49 71 53 47 54 3
78 52 47 54 30 56 23
710 49 1 52 3 53 30 56 83 145 85 65 12
173 35 21 47 17 50 22 167 8 168 8 155 17
225 53 23 54 83 85 97 65 68
438 28 83 32 13 37 34 81 118 82 11 83 8 84 38 85 33
110 59 54 60 13 61 7 62 59 63 18 64 37 65 25 66 22
754 58 54 71 23 63 24 66 32 95 26
136 58 13 61 76 62 59 111 12 112 24
182 58 7 60 76 81 26 113 17 112 12 114 84 85 61 65 92
232 58 59 60 59 111 42 64 5
221 58 18 59 24 71 55 124 44 72 17 64 21
46 58 37 62 5 63 21 124 20 111 48 125 56 129 12 127 4
162 54 12 56 68 58 25 61 92 145 38 238 11 234 44 85 21 66 53
139 58 22 59 32 65 53 238 46 99 5 95 33
33 68 17 69 36 70 51 71 40 72 2 73 27
145 67 17 74 32 70 48 75 50 73 20
214 67 36 71 18 99 27 100 4 101 7 73 18 95 23 98 10
51 67 51 68 48 75 30 72 63 110 27
268 59 23 63 55 67 40 69 18 72 7 95 22
299 63 17 67 2 70 63 71 7 124 44 126 36 110 64
236 67 27 68 20 69 18 74 21 98 40
83 68 32 73 21 76 11 75 5 96 12 79 31 97 17 98 13
70 68 50 70 30 74 5 76 37 78 7 115 69 110 3
75 74 11 75 37 77 32 78 29 79 15 80 18
45 76 32 86 35 78 3 87 4 88 20 89 29 80 30
102 75 7 76 29 77 3 108 18 86 25 115 34 109 7
100 74 31 76 15 245 15 97 19 240 6 80 12
42 76 18 77 30 79 12 87 27 245 25
230 57 118 61 26 116 47 114 106 85 44
534 37 90 57 11 156 11 84 84
458 57 8 156 7 157 52 84 94 85 51
596 57 38 82 84 83 94 156 1
381 38 49 56 97 57 33 61 61 65 21 81 44 83 51 157 51
109 77 35 78 25 90 5 91 10 108 37 89 7
103 77 4 80 27 245 22 88 45 229 22
106 77 20 87 45 221 22 186 9 233 14 244 33 229 1 89 11
122 77 29 86 7 88 11 90 13 244 32 94 38 246 13
212 86 5 89 13 91 18 92 48 93 22 94 40
193 86 10 90 18 103 12 107 25 104 15 108 12 92 24
164 90 48 91 24 104 45
287 90 22 243 5 94 11 246 32
359 89 38 90 40 93 11 246 17
155 59 26 66 33 69 23 71 22 99 32
201 74 12 226 9 224 23 219 9 97 16 240 13 100 19 98 15
64 74 17 79 19 96 16 240 25
213 69 10 73 40 74 13 96 15 100 37
243 66 5 69 27 95 32 238 6 239 25 101 24
348 69 4 96 19 98 37 224 10 225 6 241 36 101 1
140 69 7 99 24 100 1 239 15 242 17 241 21 237 6
96 103 20 104 13 105 16 106 8
132 91 12 102 20 107 18 104 1 106 19
327 91 15 92 45 102 13 103 1 105 50
68 102 16 104 50 106 171
96 102 8 103 19 105 171 107 2 109 153
76 91 25 103 18 106 2 108 32 109 17
66 78 18 86 37 91 12 107 32 109 9
145 78 7 106 153 107 17 108 9 115 77 110 80
378 70 27 72 64 75 3 109 80 115 57 126 17
309 60 12 62 42 64 48 112 29 122 36 127 1
295 60 24 61 12 111 29 121 21 113 36 122 16
132 61 17 112 36 120 12 121 18 117 19 114 36 118 1
99 61 84 81 106 113 36 116 9 117 42
784 75 69 78 34 109 77 110 57
29 81 47 114 9 117 38 118 22 119 57
121 113 19 114 42 116 38 118 30
47 113 1 116 22 117 30 120 36 123 22 119 17
103 116 57 118 17 123 69 140 18 141 30
939 113 12 118 36 121 31 122 17 123 25
153 112 21 113 18 120 31 122 24
778 111 36 112 16 120 17 121 24 123 4 128 6 127 64
463 118 22 119 69 120 25 122 4 128 26 140 63
260 63 44 64 20 72 44 125 44 126 36
112 64 56 124 44 130 12 133 35 129 7 132 2 126 43 134 6
38 72 36 110 17 124 36 125 43 134 32
268 64 4 111 1 122 64 139 18 129 46 128 23
246 122 6 123 26 127 23 139 23 140 32
900 64 12 125 7 127 46 130 40 139 4 136 11 131 5
329 125 12 129 40 131 3 132 38
699 129 5 130 3 136 7 137 5 132 2
464 125 2 130 38 131 2 133 38 137 1
932 125 35 132 38 135 17 137 6 138 18 134 17
362 125 6 126 32 133 17 142 50 138 37
1341 133 17 136 21 137 10 138 37
762 129 11 131 7 135 21 139 33 137 1 138 2
564 131 5 132 1 133 6 135 10 136 1
888 133 18 134 37 135 37 136 2 139 24 142 51 140 5
1079 127 18 128 23 129 4 136 33 138 24 140 30
201 119 18 123 63 128 32 138 5 139 30 142 5 141 32 143 54
293 119 30 140 32 143 59 144 125
226 134 50 138 51 140 5 143 79
62 140 54 141 59 142 79 144 90
125 141 125 143 90
193 48 4 49 46 54 85 65 38 158 42 198 16 234 1
226 33 17 147 9 148 63 149 43 150 6 151 21 152 2
511 33 50 146 9 149 31
689 33 8 34 43 43 20 146 63 150 16
244 146 43 147 31 151 1 177 37 178 10
341 43 17 146 6 148 16 175 20 152 15
419 146 21 149 1 188 16 178 28 152 4 189 10 190 8
269 146 2 150 15 151 4 172 3 175 7 188 16 196 8 180 1 176 9
544 44 5 46 9 159 3 163 13 154 19 181 2 166 8
286 46 1 153 19 168 11 155 17 181 12
320 35 9 46 29 55 17 154 17 168 20
112 37 13 38 16 82 11 83 7 84 1 157 3
428 38 24 83 52 85 51 156 3
120 48 4 51 13 145 42 169 38 170 4 198 50
1090 153 3 160 9 161 1 162 4 163 8 164 1 165 1 166 10
189 159 9 161 3 165 9
541 159 1 160 3 173 5 179 2 162 2 180 2 165 3
1173 159 4 161 2 179 4 163 6
1079 44 9 153 13 159 8 162 6 179 3 182 7
804 159 1 191 10 165 8 166 24 192 2 193 5 194 14
518 159 1 160 9 161 3 164 8 191 1 180 4
1795 153 8 159 10 164 24 181 27 192 7
452 50 18 55 8 168 30 169 11 170 16 171 24
593 55 8 154 11 155 20 167 30 181 11 171 9
248 50 14 51 29 158 38 167 11 170 21
152 158 4 167 16 169 21 171 18 198 29 216 20 217 7
228 167 24 168 9 170 18 181 9 200 32 214 6 217 1
587 152 3 173 5 174 2 175 3 176 7
417 161 5 172 5 179 4 174 1 180 1 176 1
319 172 2 173 1 179 1 175 11 182 11
400 43 1 150 20 152 7 172 3 174 11 182 5
397 152 9 172 7 173 1 180 10
179 149 37 184 26 178 16 185 11 195 1
376 149 10 151 28 177 16 195 16 190 6
1377 161 2 162 4 163 3 173 4 174 1 182 8
783 152 1 161 2 165 4 173 1 176 10 199 3 196 3 191 8
670 153 2 154 12 166 27 168 11 171 9 192 5 200 15
766 43 2 44 7 163 7 174 11 175 5 179 8
87 184 19 185 17 186 9 187 1
171 177 26 183 19 185 12
149 177 11 183 17 184 12 220 15 195 15 186 17
380 88 9 183 9 185 17 220 6 221 40 230 24 187 7 233 6
158 183 1 186 7 207 16 230 7 208 18
531 151 16 152 16 196 16 189 21 197 1
1343 151 10 188 21 197 8 222 1 218 19 190 16
80 151 8 178 6 189 16 220 21 195 5 221 10 222 18
554 164 10 165 1 180 8 199 7 194 2
423 164 2 166 7 181 5 201 11 211 5 204 1 215 1 193 7 200 12 213 22 206 4
623 164 5 192 7 194 5 197 20 213 19 218 20 219 14
787 164 14 191 2 193 5 199 9 196 2 197 16
221 177 1 178 16 185 15 190 5 220 12
302 152 8 180 3 188 16 194 2 199 8 197 11
1223 188 1 189 8 193 20 194 16 196 11 218 9
115 145 16 158 50 170 29 216 2 234 26 235 40
326 180 3 191 7 194 9 196 8
398 171 32 181 15 192 12 215 28 214 1
498 192 11 202 3 203 1 204 11 205 1 206 5
474 201 3 203 5 210 3 206 2
459 201 1 202 5 205 9 214 3 210 6
732 192 1 201 11 215 18 205 7 214 2
626 201 1 203 9 204 7 214 6
560 192 4 201 5 202 2 211 7 210 1
240 187 16 208 8 209 17
312 187 18 207 8 230 17 231 12 209 14
418 207 17 208 14 231 7 233 7 243 12 244 8
311 202 3 203 6 206 1 211 8 223 7 212 1 214 6 225 7
378 192 5 206 7 210 8 212 10 213 2
580 210 1 211 10 223 16 226 9 213 11 224 3
504 192 22 193 19 211 2 212 11 226 13 219 5
301 171 6 200 1 203 3 204 2 205 6 210 6 215 16 217 31 225 6 236 1
774 192 1 200 28 204 18 214 16
151 170 20 198 2 217 25 237 22 236 8 235 18
272 170 7 171 1 214 31 216 25 236 18
287 189 19 193 20 197 9 227 11 222 26 219 5
147 96 9 193 14 213 5 218 5 226 31 227 2 228 28 240 3
123 185 15 186 6 190 21 195 12 221 3
352 88 22 186 40 190 10 220 3 222 11 229 28
283 189 1 190 18 218 26 221 11 227 14 229 21
109 210 7 212 16 224 16 225 13
149 96 23 100 10 212 3 223 16 226 15 225 13
60 100 6 210 7 214 6 223 13 224 13 241 16 236 19
178 96 9 212 9 213 13 219 31 224 15
332 218 11 219 2 222 14 228 29 229 13
173 219 28 227 29 240 28 229 12
110 87 22 88 1 221 28 222 21 227 13 228 12 245 7 240 1
806 186 24 187 7 208 17 231 3 232 22 233 3
129 208 12 209 7 230 3 232 3 233 19
192 230 22 231 3 233 19
248 88 14 186 6 209 7 230 3 231 19 232 19 244 35
136 65 44 145 1 198 26 238 45 239 3 235 44
110 198 40 216 18 234 44 239 11 237 12
438 214 1 216 8 217 18 225 19 242 9 241 4 237 8
107 101 6 216 22 235 12 236 8 239 20 242 13
41 65 11 66 46 99 6 234 45 239 23
218 99 25 101 15 234 3 235 11 237 20 238 23
95 79 6 96 13 97 25 219 3 228 28 229 1 245 28
160 100 36 101 21 225 16 236 4 242 19
110 101 17 236 9 237 13 241 19
48 93 5 209 12 244 13 246 37
29 88 33 89 32 209 8 233 35 243 13 246 27
48 79 15 80 25 87 22 229 7 240 28
145 89 13 93 32 94 17 243 37 244 27
