211 577 11
236 2 39 3 35 4 31 5 29 6 26
654 1 39 5 6 7 22 8 29 9 12 10 8 6 34
226 1 35 11 3 4 35 12 151 13 159 5 23 14 29 15 13
315 1 31 3 35 11 23 18 15 22 52 6 29
104 1 29 2 6 3 23 14 29 7 15
542 1 26 2 34 4 29 18 15 10 50
216 2 22 5 15 100 16 14 5 104 28 9 16 33 26
834 2 29 99 10 9 55
665 2 12 7 16 8 55 99 1 100 53
117 2 8 6 50 16 6 18 36
192 3 3 4 23 17 18 22 50 23 27 13 64
221 3 151 29 323 13 220 30 100 15 60 33 30
299 3 159 11 64 12 220 29 312 23 33 32 179 54 288 34 779
23 3 29 5 29 7 5 15 37 104 16
157 3 13 12 60 14 37 104 25 33 4
235 10 6 17 26 18 35 19 12 20 1 21 47
390 11 18 16 26 18 18 22 15 20 20 23 7
370 4 15 6 15 10 36 16 35 17 18 22 9
410 16 12 24 31 21 20 25 9 26 46
670 16 1 17 20 24 25 23 39 21 17 27 30 28 11
237 16 47 19 20 20 17 24 30
357 4 52 11 50 17 15 18 9
249 11 27 13 33 17 7 20 39 34 37 28 4
718 19 31 20 25 21 30 25 12 27 18
205 19 9 24 12 27 22 26 24 35 7 36 22 37 16
177 19 46 25 24 36 43
222 20 30 24 18 25 22 37 27 38 31 28 22
357 20 11 23 4 27 22 61 77 38 68 34 194 67 60
475 12 323 13 312 30 38 31 67 32 703
530 12 100 29 38 95 62 31 17 102 21 96 36 33 4
468 29 67 30 17 95 69 32 30
343 13 179 29 703 31 30
122 7 26 12 30 15 4 30 4 100 13 102 49 104 11
216 13 779 23 37 28 194 54 480 67 174
49 25 7 50 28 41 15 36 36 37 13 53 5 47 9
134 25 22 26 43 35 36 50 19
525 25 16 27 27 35 13 41 26 43 16 38 1
390 27 31 28 68 37 1 42 35 43 20 61 22 46 2
933 40 13 41 19 42 3 43 8 44 3 45 2 46 8 47 12
661 39 13 44 9 46 8 48 2 49 8
892 35 15 37 26 39 19 43 6 47 16
373 38 35 39 3 43 19 46 44
872 37 16 38 20 39 8 41 6 42 19
1047 39 3 40 9 69 1 75 4 81 5 45 5 49 5 72 9
1051 39 2 44 5 68 9 69 10 47 15
865 38 2 39 8 40 8 42 44 61 42 48 4
413 35 9 39 12 41 16 45 15 68 1 53 23
1001 40 2 46 4 61 3 81 5 63 6 49 5
740 40 8 44 5 48 5 81 1
68 35 28 36 19 51 26 52 40 53 5
260 50 26 68 2 52 1 53 33 70 31
71 50 40 51 1 82 37 70 12
219 35 5 47 23 50 5 51 33 68 18
156 13 288 34 480 130 353 137 43 67 302 135 130 125 407
324 56 4 57 1 58 1 59 2 60 5
775 55 4 57 2 73 2 74 1 75 3 59 2
416 55 1 56 2 74 4 76 2 77 1 60 1 65 1
482 55 1 86 10 89 1 87 1 90 8 59 8 77 1 60 4
1120 55 2 56 2 58 8 75 9 89 1 72 13
823 55 5 57 1 58 4 77 4
825 28 77 38 22 46 42 48 3 62 17 63 1 64 12 65 40 66 49 67 18
732 61 17 63 5 64 14
936 48 6 61 1 62 5 79 1 80 2 81 1 64 1
1081 61 12 62 14 63 1 78 12 80 2 65 13
1036 57 1 61 40 64 13 78 8 74 4 76 17 66 52
367 61 49 65 52 85 18 87 27 76 4 92 31 94 6 88 13 67 90
350 28 60 34 174 54 302 61 18 66 90 94 15 187 53 137 40
431 45 9 47 1 51 2 53 18 69 21 70 2
708 44 1 45 10 68 21 71 9 70 5 72 25
312 51 31 52 12 68 2 69 5 82 19 71 19 83 31
577 69 9 70 19 85 34 86 7 89 19 72 4 83 7
880 44 9 59 13 69 25 71 4 75 1 89 13
503 56 2 78 1 74 2 75 3 79 2 80 2
515 56 1 57 4 65 4 73 2 78 5
315 44 4 56 3 59 9 72 1 73 3 79 4 81 1
652 57 2 65 17 66 4 87 1 90 10 77 4
695 57 1 58 1 60 4 76 4 90 5
530 64 12 65 8 73 1 74 5 80 3
492 63 1 73 2 75 4 80 2 81 6
546 63 2 64 2 73 2 78 3 79 2
360 44 5 48 5 49 1 63 1 75 1 79 6
81 52 37 70 19 83 28 84 18
138 70 31 71 7 82 28 85 15 91 11 84 53 88 21
210 82 18 83 53 91 4 182 17 183 34 93 14 184 1
519 66 18 71 34 83 15 86 1 87 7 88 47
505 58 10 71 7 85 1 89 15 87 14
541 58 1 66 27 76 1 85 7 86 14 90 16
431 66 13 83 21 85 47 91 44 92 27
883 58 1 59 1 71 19 72 13 86 15
887 58 8 76 10 77 5 87 16
585 83 11 84 4 88 44 92 20 93 48 94 4
564 66 31 88 27 91 20 94 65
749 84 14 91 48 182 30 94 18 185 6 186 43
721 66 6 67 15 91 4 92 65 93 18 187 53 186 20
345 30 62 31 69 96 19
309 30 36 95 19 97 17 99 21 101 32 102 1 103 11
792 96 17 98 42 99 24
704 97 42 99 33
707 8 10 9 1 96 21 97 24 98 33 100 32 101 26
508 7 16 9 53 33 13 99 32 101 18 102 4
241 96 32 99 26 100 18 102 23 103 19
436 30 21 33 49 96 1 100 4 101 23 103 25
315 96 11 101 19 102 25
184 7 28 14 16 15 25 33 11
289 106 26 107 10 108 4 109 55 110 58 111 5
205 105 26 108 35 112 17 113 21 111 14 114 3 115 17
193 105 10 116 28 110 39 117 19 118 4 111 22
706 105 4 106 35 109 42 112 40 122 14 123 8 124 3
180 105 55 108 42 110 16 124 78 125 14
211 105 58 107 39 109 16 116 2 119 109 125 94
361 105 5 106 14 107 22 118 16 115 19
111 106 17 108 40 123 50 113 11
184 106 21 112 11 197 28 114 31
154 106 3 113 31 196 1 197 9 117 12 198 24 115 37
309 106 17 111 19 114 37 117 2 118 17
178 107 28 110 2 119 61 120 2 121 43 117 2
405 107 19 114 12 115 2 116 2 121 35 118 26
340 107 4 111 16 115 17 117 26
83 110 109 116 61 130 190 120 17 125 67
385 116 2 119 17 130 11 133 58 121 8
779 116 43 117 35 120 8
715 108 14 126 23 127 19 123 15 129 18 124 35
11 108 8 112 50 122 15 127 25 131 41
379 108 3 109 78 122 35 129 17 139 21 141 7 125 62
844 54 407 109 14 110 94 119 67 124 62 130 311 141 140 155 499 167 203
557 122 23 127 16 128 21 129 12
118 122 19 123 25 126 16 128 1 131 20
509 126 21 127 1 143 26 129 22 131 14 142 9
77 122 18 124 17 126 12 128 22 139 50 142 4
885 54 353 119 190 120 11 125 311 132 18 133 11 134 36 135 107 136 23
272 123 41 127 20 128 14 143 20 146 28
912 130 18 133 14 136 56 195 46
240 120 58 130 11 132 14 195 43
289 130 36 188 74 191 21 187 5 192 37 135 10 194 3 136 28
268 54 130 130 107 134 10 188 62 137 22
224 130 23 132 56 134 28 193 5 194 49 195 4
424 54 43 67 40 135 22 188 10 187 28
240 139 49 140 41 141 17 142 20
83 124 21 129 50 138 49 141 21 142 3
395 138 41 141 21 142 27 152 13 153 58 154 1
456 124 7 125 140 138 17 139 21 140 21 153 28 155 112
322 128 9 129 4 138 20 139 3 140 27 143 6 144 13 145 22 152 14
191 128 26 131 20 142 6 144 28 145 2 146 26
534 142 13 143 28 145 26
453 142 22 143 2 144 26 147 13 146 11 152 18 150 6
321 131 28 143 26 145 11 147 24 148 15 157 34
121 145 13 146 24 148 43 149 3 150 41 151 1
276 146 15 147 43 156 39 157 1 151 5 158 26
896 147 3 159 8 160 6 163 13 152 4 150 20 151 33 162 5
315 145 6 147 41 149 20 152 37
520 147 1 148 5 149 33 162 26 158 24 171 2 172 38
946 140 13 142 14 145 18 149 4 150 37 163 10 154 1 168 25
387 140 58 141 28 165 46 155 15 154 25
732 140 1 152 1 153 25 165 40 169 23 168 44 166 26
207 125 499 141 112 153 15 165 39 167 616
252 148 39 157 38 158 22
160 146 34 148 1 156 38
229 148 26 151 24 156 22 172 73
907 149 8 160 6 161 5 162 11
565 149 6 159 6 161 3 163 9
941 159 5 160 3 163 3 162 2 164 9
747 149 5 151 26 159 11 161 2 169 21 164 6 171 14
817 149 13 152 10 160 9 161 3 164 2 168 22
1014 161 9 162 6 163 2 169 19 168 18
325 153 46 154 40 155 39 166 18 167 18
185 154 26 165 18 169 22 179 45 170 26 177 16 167 11
213 125 203 155 616 165 18 166 11 179 66 180 35 209 734
667 152 25 154 44 163 22 164 18 169 1
574 154 23 162 21 164 19 166 22 168 1 170 7 171 30
90 166 26 169 7 173 25 171 34 176 6 177 25
245 151 2 162 14 169 30 170 34 172 11 176 26 181 33
201 151 38 158 73 171 11 181 87
430 170 25 174 24 175 5 176 13 177 36 178 20
175 173 24 175 54 176 49
357 173 5 174 54 176 1 181 34 178 42 207 41 208 27
142 170 6 171 26 173 13 174 49 175 1 181 33
189 166 16 170 25 173 36 179 36 180 25 205 21 178 15
556 173 20 175 42 177 15 205 13 211 52 208 12
54 166 45 167 66 177 36 180 62
241 167 35 177 25 179 62 205 31 209 97 206 6
216 171 33 172 87 175 34 176 33 207 31
135 84 17 93 30 183 48 184 3 185 44
210 84 34 182 48 184 57
29 84 1 182 3 183 57 189 3 185 8
102 93 6 182 44 184 8 189 36 186 23 190 10
358 93 43 94 20 185 23 191 47 187 24 190 10
603 67 53 94 53 134 5 137 28 186 24 188 33 191 20
320 134 74 135 62 137 10 187 33
83 184 3 185 36 190 42
76 185 10 186 10 189 42 191 39 193 29
907 134 21 186 47 187 20 190 39 192 44 193 1
644 134 37 191 44 193 14 194 46
30 136 5 190 29 191 1 192 14 194 30 195 7
582 134 3 136 49 192 46 193 30
523 132 46 133 43 136 4 193 7
20 114 1 197 44 198 40
57 113 28 114 9 196 44
11 114 24 196 40
192 200 102 201 13 202 3 203 34
87 199 102 204 109 201 19 205 50
297 199 13 200 19 210 17 205 28 211 35 202 6
854 199 3 201 6 210 30 208 17 203 30
476 199 34 202 30 208 28
185 200 109 205 52 206 670
148 177 21 178 13 180 31 200 50 201 28 204 52 211 2 206 1
64 180 6 204 670 205 1 209 805
161 175 41 181 31 208 61
427 175 27 178 12 202 17 203 28 207 61 210 1 211 7
229 167 734 180 97 206 805
345 201 17 202 30 208 1 211 21
136 178 52 201 35 205 2 208 7 210 21
