246 684 11
63 3 20 4 25 7 23 9 11 39 1
323 6 183 17 46
105 1 20 9 52 39 65
138 1 25 5 55 7 6 38 51 39 16 40 21
215 4 55 7 16 8 7 10 18 13 54 40 28
329 2 183 15 136 17 32 18 1
52 1 23 4 6 5 16 8 22 9 14 12 5
117 7 22 5 7 10 17 11 20 12 25 21 1
54 1 11 3 52 7 14 12 57 16 7
91 5 18 8 17 11 14 13 33 26 12 36 1
155 8 20 10 14 21 22 26 32
141 7 5 9 57 8 25 16 64 21 1
142 5 54 10 33 20 31 24 5 36 1
333 18 49 23 18 121 43
139 6 136 17 13 18 32 19 2 22 3 25 67 37 86
279 9 7 12 64 21 61 117 60 118 10
189 2 46 6 32 15 13 22 84
539 6 1 15 32 14 49 19 65 23 19
665 15 2 18 65 23 73 37 127
101 13 31 36 43 24 56 122 6
263 8 1 12 1 11 22 16 61 26 10 34 27 118 21
281 17 84 15 3 25 54 123 12 146 51
295 18 19 14 18 19 73 37 18 121 75
176 13 5 20 56 29 29 122 19
248 15 67 22 54 37 46 123 74
28 10 12 11 32 21 10 34 17 36 33
168 118 13 28 1 35 15 145 10 148 17
1076 36 1 122 20 27 1 32 32 35 7 111 26 148 7
718 24 29 122 2 31 35 114 38 120 19 139 1 147 6
221 120 71 33 47 108 3
162 122 30 29 35 126 17 139 17
377 36 7 34 25 28 32 35 16
78 30 47 108 30 109 23
32 21 27 26 17 36 26 118 26 32 25 35 10
135 118 14 34 10 27 15 28 7 32 16
117 10 1 13 1 26 33 20 43 28 1 32 7 34 26 122 19
80 15 86 23 18 121 17 19 127 25 46 45 13 123 50
312 4 51 39 32 40 58
366 1 1 3 65 4 16 38 32
176 4 21 5 28 38 58
110 48 54 57 13 58 7 59 59 74 18 83 37 235 25 240 22
33 43 17 50 36 55 51 64 40 82 2 239 27
145 42 17 49 32 55 48 61 50 239 20
75 49 11 61 37 46 32 63 29 227 15 244 18
438 121 83 37 13 123 34 70 118 119 11 131 8 142 38 224 33
45 44 32 62 35 63 3 225 4 232 20 238 29 244 30
212 62 5 238 13 56 18 65 48 242 22 243 40
754 41 54 64 23 74 24 240 32 241 26
83 43 32 239 21 44 11 61 5 226 12 227 31 229 17 245 13
214 42 36 64 18 223 27 233 4 237 7 239 18 241 23 245 10
96 52 20 54 13 77 16 81 8
132 56 12 51 20 53 18 54 1 81 19
76 56 25 52 18 81 2 60 32 104 17
327 56 15 65 45 51 13 52 1 77 50
51 42 51 43 48 61 30 82 63 101 27
193 62 10 47 18 52 12 53 25 54 15 60 12 65 24
136 41 13 58 76 59 59 72 12 75 24
182 41 7 57 76 70 26 73 17 75 12 76 84 224 61 235 92
232 41 59 57 59 72 42 83 5
66 63 18 62 37 56 12 53 32 104 9
70 43 50 55 30 49 5 44 37 63 7 78 69 101 3
109 46 35 63 25 47 5 56 10 60 37 238 7
102 61 7 44 29 46 3 60 18 62 25 78 34 104 7
268 48 23 74 55 42 40 50 18 82 7 241 22
164 47 48 56 24 54 45
29 70 47 76 9 71 38 80 22 91 57
939 73 12 80 36 68 31 79 17 89 25
153 75 21 73 18 67 31 79 24
260 74 44 83 20 82 44 85 44 98 36
230 45 118 58 26 66 47 76 106 224 44
121 73 19 76 42 66 38 80 30
309 57 12 59 42 83 48 75 29 79 36 97 1
132 58 17 75 36 67 12 68 18 71 19 76 36 80 1
221 41 18 48 24 64 55 69 44 82 17 83 21
295 57 24 58 12 72 29 68 21 73 36 79 16
99 58 84 70 106 73 36 66 9 71 42
68 51 16 54 50 81 171
784 61 69 63 34 104 77 101 57
778 72 36 75 16 67 17 68 24 89 4 96 6 97 64
47 73 1 66 22 71 30 67 36 89 22 91 17
96 51 8 52 19 77 171 53 2 104 153
299 74 17 42 2 55 63 64 7 69 44 98 36 101 64
46 41 37 59 5 74 21 69 20 72 48 85 56 93 12 97 4
329 85 12 93 40 92 3 95 38
112 83 56 69 44 84 12 87 35 93 7 95 2 98 43 103 6
1341 87 17 90 21 94 10 102 37
932 85 35 95 38 86 17 94 6 102 18 103 17
1079 97 18 96 23 93 4 90 33 102 24 100 30
463 80 22 91 69 67 25 79 4 96 26 100 63
762 93 11 92 7 86 21 88 33 94 1 102 2
103 66 57 80 17 89 69 100 18 105 30
699 93 5 84 3 90 7 94 5 95 2
900 83 12 85 7 97 46 84 40 88 4 90 11 92 5
564 92 5 95 1 87 6 86 10 90 1
464 85 2 84 38 92 2 87 38 94 1
246 79 6 89 26 97 23 88 23 100 32
268 83 4 72 1 79 64 88 18 93 46 96 23
38 82 36 101 17 69 36 85 43 103 32
226 103 50 102 51 100 5 106 79
201 91 18 89 63 96 32 102 5 88 30 99 5 105 32 106 54
378 55 27 82 64 61 3 104 80 78 57 98 17
888 87 18 103 37 86 37 90 2 88 24 99 51 100 5
362 85 6 98 32 87 17 99 50 102 37
145 63 7 81 153 53 17 60 9 78 77 101 80
293 91 30 100 32 106 59 107 125
62 100 54 105 59 99 79 107 90
125 105 125 106 90
710 120 1 30 3 33 30 109 83 202 85 235 12
225 33 23 108 83 224 97 235 68
226 117 17 115 9 116 63 129 43 143 6 152 21 167 2
441 122 4 28 26 148 17 136 9 144 1 149 29
112 123 13 146 16 119 11 131 7 142 1 113 3
428 146 24 131 52 224 51 112 3
256 29 38 120 57 147 46 156 4 202 4
511 117 50 110 9 129 31
689 117 8 118 43 145 20 110 63 143 16
347 16 60 110 17 115 50 116 8 118 1
42 21 21 16 10 117 1 27 13 34 26 35 14 116 43 145 16
534 123 90 45 11 112 11 142 84
299 29 19 114 57 30 71 108 1 202 46
435 14 43 23 75 37 17 45 83
770 36 19 20 6 24 19 28 20 29 2 31 30 111 4 126 21 149 9
223 22 12 25 74 37 50 45 34 112 13 119 90 146 10
1090 136 3 127 9 132 1 137 4 140 8 153 1 164 1 165 10
452 139 18 126 8 133 30 163 11 174 16 182 24
173 122 21 31 17 139 22 125 8 133 8 149 17
189 124 9 132 3 164 9
587 167 3 130 5 135 2 138 3 166 7
244 110 43 115 31 152 1 154 37 157 10
417 132 5 128 5 134 4 135 1 162 1 166 1
458 45 8 112 7 113 52 142 94 224 51
541 124 1 127 3 130 5 134 2 137 2 162 2 164 3
593 126 8 144 11 149 20 125 30 159 11 182 9
1377 132 2 137 4 140 3 130 4 135 1 141 8
319 128 2 130 1 134 1 138 11 141 11
544 148 5 111 9 124 3 140 13 144 19 159 2 165 8
1173 124 4 132 2 134 4 140 6
400 145 1 143 20 167 7 128 3 135 11 141 5
201 29 1 31 17 125 18 126 22 147 34 163 14
1079 148 9 136 13 124 8 137 6 134 3 141 7
766 145 2 148 7 140 7 135 11 138 5 134 8
596 45 38 119 84 131 94 112 1
341 145 17 110 6 116 16 138 20 167 15
286 111 1 136 19 133 11 149 17 159 12
215 118 16 27 10 116 20 138 1 141 2 143 17 148 10
336 22 51 123 10 112 16 113 24 224 49
86 29 6 114 46 139 34 156 13 163 29
408 27 17 28 7 145 10 111 17 136 5 140 9 141 7
320 122 9 111 29 126 17 144 17 133 20
87 151 19 184 17 196 9 208 1
171 154 26 150 19 184 12
419 110 21 129 1 155 16 157 28 167 4 180 10 206 8
804 124 1 161 10 164 8 165 24 175 2 178 5 181 14
179 129 37 151 26 157 16 184 11 185 1
531 152 16 167 16 160 16 180 21 183 1
120 114 4 147 13 202 42 163 38 174 4 195 50
376 129 10 152 28 154 16 185 16 206 6
326 162 3 161 7 181 9 160 8
670 136 2 144 12 165 27 133 11 182 9 175 5 194 15
302 167 8 162 3 155 16 181 2 158 8 183 11
554 153 10 164 1 162 8 158 7 181 2
783 167 1 132 2 164 4 130 1 166 10 158 3 160 3 161 8
248 139 14 147 29 156 38 125 11 174 21
518 124 1 127 9 132 3 153 8 161 1 162 4
1795 136 8 124 10 153 24 159 27 175 7
397 167 9 128 7 130 1 162 10
269 110 2 143 15 152 4 128 3 138 7 155 16 160 8 162 1 166 9
498 175 11 170 3 172 1 173 11 177 1 207 5
240 208 16 201 8 215 17
474 168 3 172 5 199 3 207 2
378 175 5 207 7 199 8 191 10 203 2
459 168 1 170 5 177 9 197 3 199 6
732 175 1 168 11 176 18 177 7 197 2
152 156 4 125 16 163 21 182 18 195 29 198 20 205 7
423 153 2 165 7 159 5 168 11 171 5 173 1 176 1 178 7 194 12 203 22 207 4
774 175 1 194 28 173 18 197 16
626 168 1 172 9 173 7 197 6
623 153 5 175 7 181 5 183 20 203 19 204 20 212 14
123 184 15 196 6 206 21 185 12 189 3
1343 152 10 155 21 183 8 200 1 204 19 206 16
787 153 14 161 2 178 5 158 9 160 2 183 16
228 125 24 133 9 174 18 159 9 194 32 197 6 205 1
1223 155 1 180 8 178 20 181 16 160 11 204 9
149 154 11 150 17 151 12 179 15 185 15 196 17
221 154 1 157 16 184 15 206 5 179 12
109 199 7 191 16 210 16 213 13
178 226 9 191 9 203 13 212 31 210 15
332 204 11 212 2 200 14 219 29 236 13
352 232 22 196 40 206 10 179 3 200 11 236 28
806 196 24 208 7 201 17 192 3 193 22 218 3
580 199 1 171 10 186 16 187 9 203 11 210 3
129 201 12 215 7 190 3 193 3 218 19
192 190 22 192 3 218 19
398 182 32 159 15 175 12 176 28 197 1
115 202 16 156 50 174 29 198 2 220 26 222 40
380 232 9 150 9 184 17 179 6 189 40 190 24 208 7 218 6
301 182 6 194 1 172 3 173 2 177 6 199 6 176 16 205 31 213 6 221 1
151 174 20 195 2 205 25 217 22 221 8 222 18
311 170 3 172 6 207 1 171 8 186 7 191 1 197 6 213 7
283 180 1 206 18 204 26 189 11 188 14 236 21
312 208 18 169 8 190 17 192 12 215 14
193 114 4 120 46 108 85 235 38 156 42 195 16 220 1
504 175 22 178 19 171 2 191 11 187 13 212 5
287 180 19 178 20 183 9 188 11 200 26 212 5
272 174 7 182 1 197 31 198 25 221 18
80 152 8 157 6 180 16 179 21 185 5 189 10 200 18
560 175 4 168 5 170 2 171 7 199 1
158 150 1 196 7 169 16 190 7 201 18
41 235 11 240 46 223 6 220 45 211 23
149 226 23 233 10 191 3 186 16 187 15 213 13
218 223 25 237 15 220 3 222 11 217 20 209 23
147 226 9 178 14 203 5 204 5 187 31 188 2 219 28 230 3
60 233 6 199 7 197 6 186 13 210 13 216 16 221 19
110 237 17 221 9 217 13 216 19
418 169 17 201 14 192 7 218 7 231 12 234 8
160 233 36 237 21 213 16 221 4 214 19
107 237 6 198 22 222 12 221 8 211 20 214 13
248 232 14 196 6 215 7 190 3 192 19 193 19 234 35
173 212 28 188 29 230 28 236 12
136 235 44 202 1 195 26 209 45 211 3 222 44
438 197 1 198 8 205 18 213 19 214 9 216 4 217 8
110 195 40 198 18 220 44 211 11 217 12
243 240 5 50 27 241 32 209 6 211 25 237 24
381 146 49 109 97 45 33 58 61 235 21 70 44 131 51 113 51
103 46 4 244 27 228 22 232 45 236 22
201 49 12 187 9 210 23 212 9 229 16 230 13 233 19 245 15
100 49 31 44 15 228 15 229 19 230 6 244 12
48 227 15 244 25 225 22 236 7 230 28
64 49 17 227 19 226 16 230 25
95 227 6 226 13 229 25 212 3 219 28 236 1 228 28
48 242 5 215 12 234 13 246 37
106 46 20 225 45 189 22 196 9 218 14 234 33 236 1 238 11
348 50 4 226 19 245 37 210 10 213 6 216 36 237 1
29 232 33 238 32 215 8 218 35 231 13 246 27
162 108 12 109 68 41 25 58 92 202 38 209 11 220 44 224 21 240 53
110 225 22 232 1 189 28 200 21 188 13 219 12 228 7 230 1
140 50 7 223 24 233 1 211 15 214 17 216 21 217 6
122 46 29 62 7 232 11 47 13 234 32 243 38 246 13
236 42 27 43 20 50 18 49 21 245 40
139 41 22 48 32 235 53 209 46 223 5 241 33
155 48 26 240 33 50 23 64 22 223 32
287 47 22 231 5 243 11 246 32
359 238 38 47 40 242 11 246 17
42 44 18 46 30 227 12 225 27 228 25
213 50 10 239 40 49 13 226 15 233 37
145 238 13 242 32 243 17 231 37 234 27
