380 1068 11
160 3 15 7 37
787 23 64 45 5 46 42
567 1 15 6 34 7 1 10 10 20 44
1379 7 1 6 17 10 17 5 10 11 21
895 7 31 4 10 11 18
338 3 34 7 31 4 17 10 8
356 1 37 3 1 4 1 5 31 6 31
457 9 31 21 17
567 8 31 14 29 15 25 16 18 19 7 21 11
2321 3 10 6 8 4 17 11 3 20 2 24 9 29 24
849 10 3 4 21 5 18 24 12
709 20 12 13 25 22 29
276 20 18 12 25 17 16 22 5 28 1 30 17
340 9 29 15 1 16 25 18 18 31 11 35 3
770 9 25 21 29 14 1 18 21 33 18
1208 9 18 14 25 19 58 31 31 34 2
186 20 19 13 16 27 15 30 12
507 14 18 15 21 33 8 35 16
505 23 36 9 7 16 58 34 50
1008 3 44 10 2 12 12 13 18 17 19 27 5 29 10
358 8 17 9 11 15 29 25 21 33 2
334 12 29 13 5 28 16 32 10 36 19
738 2 64 19 36 34 3
1971 10 9 11 12 29 14 39 13 40 6 201 10
374 21 21 33 24 38 2 43 31 206 10 207 12
260 34 11 41 30
283 20 5 29 13 17 15 30 7 40 6 202 20 204 17
837 13 1 22 16 30 23 32 7 37 17 42 15 204 7
1399 10 24 20 10 24 14 27 13 40 22
596 13 17 17 12 28 23 27 7 204 17
363 14 11 16 31 34 1 35 4 217 25 219 10
507 22 10 28 7 36 37 42 34
506 21 2 15 18 18 8 35 2 25 24 38 21 205 20
642 23 3 16 2 19 50 31 1 26 11 41 26 219 8
1066 14 3 18 16 31 4 33 2 205 16 217 10
536 22 19 32 37
187 28 17 204 3 42 16 199 17 200 12 214 10
478 33 21 25 2 205 9 207 24 220 29
1112 24 13 40 4 44 19 201 27 203 4 218 9 223 1
401 24 6 29 22 27 6 39 4 44 13 202 6 203 14
875 34 26 26 30 219 29 234 19
455 28 15 32 34 37 16 214 18
1339 25 31 201 32 206 11 218 3 237 15
1152 39 19 40 13 203 18
176 2 5 46 55
414 2 42 45 55
1146 60 2 63 4 64 10 66 6 68 1 82 5 93 1
1131 49 2 54 4 57 1 58 4 62 1 94 1
747 48 2 57 7 81 2 86 6 87 1 94 1
1090 52 15 92 14 117 11 307 6
1096 54 2 62 4 78 1 90 8 308 5 313 2
1030 68 18 50 15 80 2 117 1 307 11
961 92 14 88 14 128 21 310 18
657 48 4 51 2 62 4 78 8 94 2
1103 90 5 56 1 71 4 111 6 112 11 309 7 318 4
1421 55 1 105 16 112 13 152 12 318 16
1093 48 1 49 7 58 2 59 3 65 1 67 6 81 1 306 2
1122 48 4 57 2 62 4 67 1
1205 60 1 66 3 93 3 57 3 81 8 65 8
1489 47 2 59 1 66 8 93 8
1256 63 15 66 3 296 2 312 14 324 3
778 48 1 54 4 58 4 51 4 67 1 308 2
1404 47 4 61 15 66 2 68 11 279 17 296 5 307 2
1031 47 10 68 13 80 1 82 4
1024 66 1 57 1 59 8 306 9 312 6
1288 47 6 60 8 63 2 59 3 61 3 65 1 312 3
1176 57 6 58 1 62 1 308 1 306 1 314 5 317 2
1126 47 1 63 11 64 13 52 18 80 1 307 1
1256 318 1 105 62 289 4 299 3 305 17 319 58
271 76 26 102 29 173 12 277 16 298 34 322 3
878 90 1 55 4 309 7 316 7
1178 74 3 77 1 79 3 97 7 103 2 110 1
1154 81 3 84 6 106 2 107 6 126 5
213 72 3 75 3 79 1 85 2 89 1 103 1 114 1
1016 94 2 78 2 74 3 79 5 89 1
37 70 26 99 24 102 27 183 17 322 36
1204 78 1 111 2 72 1 79 6 110 6
1314 54 8 94 3 51 1 75 2 77 1 79 1 90 2 111 8
1054 78 1 72 3 74 1 77 6 75 5
1078 64 1 68 1 82 12 52 2 117 12 130 11
689 93 4 49 2 57 1 59 8 73 3 84 6 87 1 107 3
1220 47 5 64 4 80 12 93 7 107 7 130 1
1211 86 2 87 3 85 1 91 1 115 2
977 81 6 87 6 73 6 106 1 115 1
778 74 2 83 1 89 1 91 2 114 2 115 1
1179 49 6 94 1 83 2 87 3 91 3
614 49 1 81 1 86 3 83 3 84 6 115 2
459 53 14 128 25 157 4 173 31 310 13 323 5 325 33
485 94 2 74 1 75 1 85 1 91 2
832 51 8 78 2 55 5 71 1 111 2 313 1 316 7
1240 94 1 86 3 85 2 89 2 83 1
861 50 14 53 14 117 9 124 7 128 7 307 7 310 3 321 7
1122 47 1 60 8 82 7 59 3 81 4 107 4
1217 48 1 49 1 54 2 75 2 78 3 86 1 89 2 91 1
709 97 1 96 7 101 7 134 1 136 4
1170 97 5 95 7 98 1 125 7 129 1 136 1
1143 72 7 95 1 96 5 98 5 101 1 103 1 104 1 110 1
833 97 5 96 1 104 8 127 3 129 4
369 76 24 322 15 100 26 159 44 183 24 197 1 303 20
139 99 26 142 10 149 26 159 16 280 28 303 5 311 21
519 97 1 110 3 95 7 108 1 109 4 134 7
82 70 29 76 27 153 43 173 1 183 16
464 72 2 74 1 97 1 104 1 113 2 114 1 116 2
1410 97 1 103 1 106 2 98 8 113 5 127 1
715 56 16 318 9 69 62 152 53
194 73 2 84 1 104 2 113 3 115 2 116 3 126 6 127 1
1500 82 7 93 4 81 3 73 6 119 5 126 7 130 8
474 111 1 112 5 101 1 134 5 109 9 133 8
975 111 5 110 5 101 4 108 9
1301 111 2 72 1 77 6 97 1 101 3 109 5
721 78 8 90 2 55 6 77 2 108 1 109 5 110 2 112 4
553 55 11 56 13 111 4 108 5 133 13 152 1
1106 103 2 106 3 104 5 116 1
880 74 1 103 1 85 2 115 2 116 2
1046 87 2 84 1 106 2 85 1 114 2 83 2 116 2
587 103 2 106 3 114 2 115 2 113 1
979 50 11 52 1 92 9 80 12 124 11 130 6
1355 130 5 119 9 145 8 146 8 148 7
1337 107 5 126 1 130 1 118 9 121 3 132 7 145 2 154 4
1188 125 2 129 2 127 2 122 3 135 2 150 3 155 5
691 119 3 122 4 132 4 151 5 154 3
1169 126 2 127 8 121 4 132 5 120 3 135 3 151 1
791 152 12 136 4 131 22 158 2 165 22
1254 92 7 117 11 128 11 130 6 139 20 146 10 164 7
738 96 7 136 4 120 2 129 5 155 4
1034 73 5 106 6 107 7 119 1 122 2 127 1 132 11
679 106 1 126 1 98 3 129 5 104 1 120 2 122 8
525 92 7 53 21 88 25 124 11 139 21 157 28
875 96 1 98 4 125 5 120 2 127 5
1237 82 1 117 6 80 11 107 8 118 5 119 1 124 6 146 13
318 152 6 134 12 136 1 133 15 123 22
1337 126 11 119 7 121 4 122 5
605 112 13 152 2 134 3 108 8 131 15
887 95 1 101 7 108 5 131 12 133 3 136 14
1196 120 2 122 3 137 1 138 1 144 7 147 4 150 2 151 5 171 1
1205 95 4 96 1 134 14 123 4 125 4 131 1 155 4 158 2 169 10 170 9
1283 135 1 138 7 161 5 163 2 171 6 174 5
1043 135 1 137 7 147 6 170 5 174 3
713 128 21 157 22 124 20 164 6 195 20
1288 145 5 154 1 151 2 144 6 171 4 172 10
1028 146 3 148 10 164 10 143 6
61 100 10 159 35 149 35 181 38 340 12
982 145 1 148 5 164 12 172 9 141 6 166 3
1171 135 7 151 4 140 6 171 6
863 119 2 118 8 140 5 143 1 148 1 154 7 172 4
1057 130 13 124 10 118 8 141 3 148 9 164 1
1138 135 4 150 7 138 6 170 2
1166 118 7 145 1 146 9 141 10 143 5
221 100 26 142 35 181 1 311 18
1218 120 3 135 2 147 7 155 6 170 3
1188 121 5 154 5 122 1 135 5 140 2 144 4
1306 56 12 112 1 105 53 123 12 131 6 133 2 165 45
312 102 43 173 22 183 4 160 26 162 17
1348 119 4 145 7 121 3 140 1 151 5
1136 136 4 125 4 120 5 150 6 170 1
1129 164 1 166 14 179 18 185 7
1110 88 4 128 28 173 14 139 22 178 25 190 10 195 8 337 33
950 136 2 123 2 165 21 169 10 186 4 192 1 332 13 344 11
121 99 44 100 16 142 35 197 23 340 15
112 183 27 153 26 162 18 182 15
1343 137 5 171 8 163 4 176 6 184 1 185 7
47 173 17 153 17 160 18 178 20 182 24 349 7
1516 137 2 169 1 161 4 167 3 168 1 174 4 184 10 186 1
1443 124 7 146 1 139 6 141 10 143 12 156 1 166 2 179 6 195 23
1473 152 45 123 22 158 21 332 43
1271 164 2 171 2 172 15 143 3 156 14 185 6
1109 169 11 170 5 163 3 168 7
955 170 2 163 1 174 6 167 7
1217 136 10 158 10 163 1 167 11 170 1 186 16
951 136 9 150 3 155 1 138 5 147 2 169 1 167 5 168 2 174 1
1095 135 1 137 6 144 6 140 4 161 8 166 2 172 1 185 1
904 145 4 171 1 140 10 143 9 166 15
364 88 31 70 12 102 1 153 22 157 14 162 17 178 32 298 32 323 24
1415 137 5 138 3 170 1 163 4 168 6
1230 176 1 177 23 187 15 196 13
1065 161 6 185 9 175 1 177 1 184 3 196 11 198 10
1266 179 23 185 1 176 1 175 23 187 1 334 17
450 173 32 157 25 162 20 337 34 349 37 353 29
1004 164 6 195 6 156 18 177 23 185 2 334 1
774 184 9 198 12 193 11 194 1
90 142 38 149 1 340 33
59 160 15 162 24 349 29
209 76 17 102 16 99 24 153 4 160 27 197 38
934 161 1 163 10 186 9 176 3 180 9 193 1 198 3
1261 171 1 161 7 166 6 156 7 179 2 176 9 177 1
1016 158 4 169 16 163 1 184 9 192 12 193 2
1182 175 15 177 1 189 9 196 3 331 20 334 6
971 193 2 194 10 191 5 338 8
1027 187 9 196 3 194 2 331 1 336 4 339 7
1203 157 10 195 14 334 14 337 34 345 10 355 24
1250 194 1 188 5 335 3 338 4 339 1 341 3
1448 158 1 186 12 193 15 344 22 356 12
1525 186 2 192 15 184 1 180 11 188 2 194 2 338 7 356 7
1184 196 9 198 8 180 1 193 2 188 10 189 2 191 1 339 4
1201 157 8 139 20 164 23 179 6 190 14 334 27
1381 176 11 175 13 187 3 189 3 194 9 198 1
241 99 1 183 38 159 23 340 41
1169 176 10 184 3 196 1 180 12 194 8
196 37 17 200 11 211 15 214 23 228 3
273 204 9 37 12 199 11 211 19 242 21
1517 24 10 39 27 43 32 218 22
1429 27 20 40 6 203 16 204 8 222 22 242 15
971 39 4 40 14 202 16 44 18 222 2 223 26
587 28 7 30 17 27 17 202 8 37 3 200 9 242 14
370 35 16 33 20 38 9 217 24 208 5 220 6 244 1
436 25 10 43 11 207 22 237 26
106 25 12 38 24 206 22 220 4 237 3
1396 205 5 220 10 213 4 216 1 221 13 236 1 239 1 244 25
1244 210 2 212 3 235 4 238 7 241 2
1177 223 14 222 1 209 2 212 6 230 8 238 3
347 199 15 200 19 228 20 242 10 260 14
1204 218 3 223 11 209 3 210 6 229 3 232 3 241 8
894 208 4 216 3 239 5 240 1 243 1
483 37 10 42 18 199 23 228 19
1259 220 12 216 1 221 8 243 8 258 6
326 208 1 213 3 215 1 221 3 243 1
607 31 25 35 10 205 24 219 26 244 7
1268 39 9 201 22 43 3 212 3 223 11 224 16 232 25 237 9
924 31 10 34 8 41 29 217 26 233 40 234 14 244 6
943 38 29 207 4 205 6 208 10 215 12 221 8 237 6 258 13
1388 220 8 208 13 216 3 215 8
1497 202 22 203 2 223 12 242 6 210 1 230 6 264 23
1204 39 1 203 26 218 11 210 14 212 11 222 12
1081 218 16 237 8 232 10 246 30 249 19
768 228 37 260 17 290 27
959 235 4 238 3 230 4 252 1 254 4 255 3 256 1 263 5
1036 236 1 239 2 240 9 247 1 262 9
562 199 3 214 19 211 20 225 37 260 4 290 2
811 212 3 235 1 241 9 231 8 232 8 251 1 252 5
1102 222 6 210 8 238 9 226 4 254 9 261 1 264 6
1038 229 8 232 13 249 2 251 14 272 1
305 218 25 212 3 229 8 224 10 231 13 249 7
365 219 40 234 1 323 19 244 35 286 38 291 1
773 41 19 219 14 233 1 271 35 277 10 286 30
1099 209 4 226 4 229 1 238 1 241 6 252 4
873 208 1 244 7 227 1 239 5 262 6
804 43 15 206 26 207 3 220 6 218 9 224 8 246 13 258 8 259 14
874 209 7 210 3 235 1 226 3 230 9
536 208 1 213 5 236 5 227 2 240 1
1093 213 1 239 1 227 9 243 9 247 8
1134 209 2 212 8 235 6 229 9
271 202 15 204 14 200 21 211 10 222 6 260 1 264 13 265 2
1342 213 1 216 1 240 9 215 8 247 2 258 6
1579 217 7 219 6 205 1 208 25 233 35 236 7 262 13 291 9
1400 252 3 256 3 251 5 272 6 274 4 284 7
1089 237 13 279 10 224 30 249 7 259 16 270 1 288 15
1492 240 8 243 2 258 17 227 1 262 8 281 16 288 6 291 17
1053 254 4 255 1 250 6 268 9 269 3
998 232 7 224 19 246 7 231 2 270 26 272 5
1381 255 5 263 3 274 2 248 6 268 2
1060 229 1 252 5 231 14 245 5 272 11
1238 235 4 229 5 226 1 245 3 251 5 256 8
119 303 30 280 59
930 230 9 226 4 248 4 255 6 257 3 261 7 269 3
950 226 3 254 6 248 1 250 5 263 3
1177 226 1 252 8 245 3 263 8 274 5
852 254 3 261 17 265 5 269 18
1159 220 13 237 8 243 6 215 6 247 17 259 20 288 1
1079 237 14 258 20 246 16 288 26
1139 211 14 228 4 242 1 225 17 265 28 290 14
1234 230 1 264 18 254 7 257 17 265 10
1017 244 13 236 6 227 9 247 8 291 12
1267 226 5 255 3 256 8 250 3 274 1
991 242 13 222 23 230 6 261 18 265 13
1202 289 21 319 2 242 2 260 28 264 13 290 2 261 10 257 5 269 1
1169 274 5 284 6 268 5 267 3 285 8
1120 268 8 269 5 266 3 283 8 285 4 287 1
979 274 1 248 9 250 2 266 5 267 8 269 2
829 289 6 254 3 265 1 248 3 268 2 257 18 267 5 287 12
544 296 5 279 16 246 1 249 26 272 5 273 3 282 7
133 234 35 277 15
1203 249 5 231 1 251 11 245 6 270 5 273 12 282 1 284 1
772 272 12 270 3 282 13
1135 256 5 263 1 245 4 250 2 266 5 268 1 284 4
978 296 11 282 2 300 11 301 3 302 2
1043 284 8 285 7 283 3 282 2 300 16 293 5 294 7 329 5
225 234 10 70 16 271 15 286 17 298 24
1101 323 26 325 40 291 19 281 1
848 63 17 307 23 296 16 246 10 270 16 288 4
291 100 28 303 16 253 59 311 40
1429 307 1 325 9 247 16 291 6 288 22 278 1 304 31
1022 296 7 272 1 284 9 270 7 273 13 275 2 276 2 300 5
1421 299 5 267 8 285 12 276 3 287 13 294 8
1362 272 1 245 7 274 4 266 6 276 8 282 9 285 4
939 284 4 266 8 267 4 276 7 283 12
218 234 30 277 17 298 26 323 16 233 38
1435 289 5 299 7 305 14 269 12 267 1 283 13
611 307 10 279 4 258 1 246 15 247 6 259 26 281 22
1561 69 4 265 21 269 6 287 5 305 18 319 15
895 319 57 228 2 260 14 225 27 265 2
1649 323 27 244 9 233 1 247 17 262 12 278 19 281 6
1302 313 6 293 3 329 4 320 4
1138 300 1 302 1 276 5 292 3 295 8 297 1 320 2 329 5
986 299 9 283 8 276 7 326 1 327 6 328 2 329 8
192 324 1 293 8 320 1 297 6 315 6
1267 63 5 61 2 270 5 275 11 279 16 282 7 301 9 324 1
1098 324 6 301 1 302 7 293 1 295 6
576 70 34 173 32 277 24 286 26 323 15
798 318 13 69 3 283 5 287 7 294 9 305 13 327 8
1221 282 5 275 11 276 16 293 1 302 7
842 296 9 324 9 275 3 297 1 302 2
685 275 2 300 7 301 2 293 1 297 7
211 322 37 99 20 100 5 253 30 280 16
1681 307 13 325 3 321 24 281 31
851 69 17 289 18 299 13 287 14
1137 57 2 65 9 67 1 312 7 314 8 315 2 324 1
1065 63 2 68 1 50 6 52 11 92 7 279 23 281 1 288 10 304 13 321 12
1036 62 2 51 5 67 1 313 2 317 6 320 2
1034 55 7 71 7 316 1 318 3 328 10 329 1
998 92 3 53 18 88 13 321 22 325 4
134 100 21 149 18 280 40
1017 66 3 65 6 306 7 61 14 324 3
1327 51 2 90 1 308 2 292 6 316 3 320 1 329 3
344 67 5 306 8 315 3 317 6
1242 306 2 324 7 314 3 317 4 320 4 295 6
1362 90 7 313 3 71 7 309 1 329 4
780 308 6 67 2 314 6 315 4 320 1
975 55 4 56 16 309 3 69 1 105 9 299 13 326 4 327 1 328 4
862 69 58 289 15 265 2 290 57
1166 308 2 313 1 317 1 293 2 292 4 295 1 315 4
842 92 7 307 12 310 22 325 3 304 24
243 70 3 76 36 99 15 303 37
653 88 5 173 24 298 15 233 19 278 26 286 16 291 27 325 1
1223 306 1 61 3 296 1 312 3 295 1 297 6 301 9 315 7
1427 88 33 310 4 323 1 278 40 281 9 304 3 321 3
1072 318 4 294 1 327 10 328 10
898 318 1 299 8 294 6 326 10
1620 309 10 318 4 294 2 329 5 326 10
1123 313 3 309 1 316 4 276 5 293 5 294 8 292 4 328 5
1212 338 1 335 4 333 4 346 7 348 6 358 8
991 187 20 334 8 189 1 336 6 343 4 348 20 354 27
671 158 13 165 43 344 41 351 3 352 7
1153 336 4 335 5 341 1 330 4 348 5
1370 195 27 179 1 190 14 177 17 187 6 331 8 345 21 354 10
1248 191 3 338 5 330 4 333 5 341 5
1228 189 4 331 6 333 4 339 3 341 1 348 4
485 157 33 178 34 190 34 353 21 355 13
1251 193 7 188 8 191 4 330 1 335 5 346 7 356 9
944 194 4 189 7 191 1 336 3 341 6
183 159 15 197 41 142 12 181 33
1319 191 3 336 1 339 6 335 5 333 1
1353 346 3 343 4 347 7 357 9 361 1
1233 331 4 348 7 358 15 342 4 347 3 354 11 361 35
1432 158 11 192 22 332 41 352 1 356 31
984 190 10 334 21 354 27 355 26 374 3
1236 338 7 356 11 330 7 342 3 347 5 357 8 358 2
1315 346 5 358 7 343 3 342 7
1267 331 20 336 4 330 6 333 5 343 7 358 13
176 162 7 178 37 182 29 353 12
322 351 4 352 21 362 31 373 20
1091 332 3 350 4 352 39 362 17
631 332 7 344 1 356 14 351 39 350 21 364 17 373 27
779 178 29 337 21 349 12 355 9 363 52
855 334 10 331 27 345 27 343 11 360 29 361 6 370 7 371 1 374 12
636 190 24 337 13 353 9 345 26 363 14 374 30
1176 192 12 344 31 193 7 338 9 346 11 352 14 357 10 364 21
1182 356 10 346 8 342 9 361 2 364 18 365 6
1202 330 8 346 2 348 13 343 15 347 7
494 364 23 371 35 365 19 372 25
829 354 29 374 36 370 52
889 343 35 354 6 342 1 357 2 365 35 371 4
1406 351 17 350 31 373 6
774 353 52 355 14 374 20 366 47
1373 356 21 352 17 357 18 373 15 359 23 365 14 372 5
1257 357 6 361 35 364 14 371 12 359 19
278 374 21 363 47 380 27
783 369 2 376 1 377 2
985 371 7 372 32 369 19 377 17 375 3
1208 367 2 368 19 375 16 376 4 377 4
1467 354 7 374 9 360 52 371 16 380 28
1025 354 1 361 4 370 16 359 35 365 12 368 7 372 7
776 373 36 364 5 371 7 359 25 368 32 377 3
1260 352 27 350 20 362 6 364 15 372 36 377 3
957 345 3 355 30 354 12 360 36 363 20 366 21 370 9 380 3
1217 369 16 376 1 368 3 378 1 379 15
1134 367 1 369 4 375 1 377 2 378 5
1153 373 3 372 3 367 2 369 4 376 2 368 17 378 9
961 376 5 377 9 375 1
177 375 15
927 374 3 370 28 366 27
