178 481 11
141 5 331 2 519
368 1 519 7 119 4 673 5 255
107 68 4 79 298 96 431 87 347
251 7 179 10 752 2 673
298 1 331 7 143 2 255 6 439
315 8 182 7 37 5 439 12 109 11 14
455 10 262 4 179 11 513 2 119 5 143 6 37
350 6 182 12 215 13 184
517 13 239 19 138 17 143 14 142
244 21 8 20 568 17 96 7 262 24 518 4 752 11 74
437 17 67 7 513 10 74 6 14 12 223 16 302 15 58
422 8 215 6 109 13 160 11 223 15 83
505 8 184 9 239 12 160 14 63 15 58
451 9 142 17 104 13 63 18 122 16 16 15 9
372 13 58 12 83 11 58 18 79 16 115 14 9
481 17 314 11 302 18 64 14 16 15 115
350 9 143 21 93 19 509 14 104 10 96 11 67 16 314
425 16 64 14 122 15 79
348 9 138 23 421 21 427 17 509
307 21 169 26 471 10 568 24 53 29 389 25 285
481 23 346 26 463 20 169 17 93 19 427 10 8
93 23 401 31 139
179 26 237 21 346 31 361 22 401 19 421
430 20 53 10 518 27 168 25 453 30 640 28 96
471 20 285 27 40 24 453 29 198
161 23 237 21 463 20 471 31 159 29 130 28 178
576 25 40 24 168 29 176 28 53
645 26 178 31 105 36 226 27 53 24 96 29 271 32 224 39 417 30 108
460 20 389 26 130 27 176 25 198 28 271
479 24 640 32 556 28 108
193 37 38 23 361 22 139 26 159 36 693 28 105
290 28 224 30 556 39 71 33 476
479 34 523 32 476 39 205 51 94 38 9 42 59 43 53
722 49 676 56 1 51 254 33 523
312 68 279 71 87 37 324
548 37 58 40 244 61 253 31 693 60 235 45 73 39 53 28 226
363 35 324 71 196 40 483 36 58 31 38 66 181
773 39 216 33 9 45 45 46 92 42 98 41 16
605 36 53 32 71 28 417 45 271 33 205 38 216
183 37 483 63 173 66 68 36 244 61 215
591 47 7 44 29 46 30 38 16 48 29 42 42 50 15
806 33 59 38 98 48 58 43 101 41 42
847 33 53 51 96 55 101 48 37 42 101 52 16
389 45 1 47 66 46 66 41 29
535 36 73 60 296 39 271 59 161 54 2 38 45 46 17 44 1 47 64
610 45 17 44 66 38 92 41 30
413 57 12 54 26 45 64 50 24 44 66 41 7
621 43 37 42 58 52 28 50 38 41 29
261 34 676 56 74 65 15 53 689 64 428
630 58 19 57 45 47 24 48 38 52 26 41 15
660 34 254 33 94 56 38 55 135 43 96
440 58 148 55 136 56 24 48 28 43 16 50 26
59 49 689 65 107 67 230
595 59 63 58 5 57 50 45 2 47 26
579 51 135 56 107 43 101 52 136
761 49 74 64 197 34 1 60 129 62 290 51 38 58 210 55 107 52 24
715 58 19 50 45 54 50 47 12
491 60 13 59 225 56 210 57 19 50 19 54 5 52 148
843 60 166 45 161 58 225 54 63
162 63 371 61 95 36 235 62 22 56 129 45 296 58 13 59 166
640 63 134 40 215 36 253 60 95
563 64 260 63 72 66 120 65 301 69 85 60 22 80 41 70 261 75 23 56 290
350 66 329 40 173 61 134 60 371 62 72
456 49 428 56 197 65 319 62 260
387 49 15 64 319 53 107 62 301 67 497 69 456
405 37 181 71 232 63 329 40 68 70 398 62 120
70 65 497 69 33 53 230 73 66 72 206 77 387
242 79 409 71 228 35 279 3 4
683 81 196 65 456 83 195 67 33 75 309 62 85 77 26
289 71 191 66 398 85 82 80 381 78 143 62 261
147 68 228 35 87 37 196 79 139 85 185 70 191 66 232
1240 73 383 67 206 74 301
68 72 383 67 66 77 249 74 328
138 76 806 88 369 73 328 72 301 77 101
66 84 107 81 169 69 309 80 278 86 84 62 23
142 97 347 92 146 88 241 74 806 82 1039
115 88 257 83 290 69 26 73 249 67 387 74 101
444 85 315 84 145 91 172 87 318 89 53 80 123 70 143 86 284
205 68 409 71 139 3 298 85 245 87 212
201 78 123 70 381 86 292 75 278 62 41
859 84 165 75 169 83 127 69 196
907 97 0 76 1039 105 821 107 72
296 90 306 84 171 81 127 88 133 89 39 69 195 77 290
139 86 297 75 107 81 165 78 145 89 490 83 171
54 71 185 79 245 70 82 87 234 78 315
394 84 297 80 292 78 284 75 84
340 79 212 3 347 85 234 91 116 96 275 78 318
37 92 29 90 134 93 539 76 241 74 369 83 133 77 257
95 90 168 94 276 84 490 83 39 91 279 98 199 78 53
69 83 306 89 168 94 130 93 225 88 134
137 99 362 98 470 96 315 87 116 78 172 89 279
110 97 97 101 498 104 96 106 205 103 196 98 160 88 29 93 406 76 146 94 416
63 92 406 90 225 94 323 88 539
228 92 416 90 130 98 378 89 276 93 323
120 128 115 124 225 115 272
193 3 431 91 315 99 493 87 275
68 110 146 105 677 106 668 82 0 76 347 92 97
274 92 160 103 111 94 378 102 144 91 470 99 242 89 199
209 102 182 100 286 91 362 98 242 96 493
255 114 42 115 211 102 650 99 286
192 104 384 92 498 106 347
211 114 404 103 408 98 144 100 650 99 182
173 109 122 104 355 92 196 114 297 111 205 98 111 102 408
66 109 295 101 384 106 45 103 355 92 96
16 97 677 110 434 82 821 107 607
77 109 64 97 668 101 347 104 45 108 212 110 75 92 205
642 125 523 113 848 105 607 82 72 110 546 122 251 119 26
615 109 352 106 212 111 8 110 110 112 206 116 234
547 106 64 108 352 104 295 103 122 111 63
30 97 146 106 75 105 434 108 110 116 218 107 546 119 280
416 109 63 114 279 117 118 112 364 103 205 108 8
614 111 364 117 199 108 206 121 128 116 83 120 110
82 134 441 125 576 107 848
206 111 279 117 248 124 91 115 267 126 21 100 42 102 404 103 297
111 114 267 124 307 100 211 95 272
798 108 234 112 83 110 218 120 197 119 256
96 130 71 114 248 111 118 126 314 127 260 112 199 118 54 121 118
593 127 102 117 54 122 575 123 38 121 267 119 371
613 116 256 110 280 107 26 122 8 123 62 120 2 118 371
560 112 110 116 197 123 26 121 187 119 2
607 117 118 112 128 123 28 120 187 118 267
371 127 276 132 522 131 193 125 112 107 251 118 575 119 8
934 120 26 121 28 119 62 118 38
407 128 255 114 91 95 225 115 307 126 379
221 134 370 138 228 135 107 133 261 132 188 113 576 122 112 107 523
188 130 222 129 202 128 176 114 21 124 379 117 314
153 130 247 129 225 118 102 117 260 131 85 122 276
57 139 170 129 88 137 344 126 176 95 115 124 255
202 139 440 130 165 128 88 126 202 131 244 127 225
105 117 71 127 247 126 222 129 165
19 139 171 129 244 135 65 127 85 132 197 142 90 144 269 141 107 140 153 122 193
309 135 480 125 188 131 197 122 522
126 138 266 143 218 135 354 125 261 140 195
111 155 198 146 552 113 441 145 443 138 545 125 370
294 125 107 132 480 133 354 140 173 131 65
244 167 306 151 249 148 486 163 73
166 139 128 128 344 150 209 148 73 142 200
676 134 545 145 14 143 393 125 228 133 266
83 137 128 128 170 129 440 142 446 131 171
110 143 19 135 173 133 195 144 212 131 153 147 220
90 151 402 149 193 152 1 150 226 148 60 142 83 144 324 131 107 147 4
59 139 446 150 437 137 200 131 90 141 83
274 138 393 145 285 153 5 140 19 147 245 133 218 149 199
42 131 269 140 212 141 324 147 263
684 155 170 134 443 138 14 143 285 157 149 153 226 156 394
135 164 203 155 371 134 552 160 283 162 96
206 143 245 149 393 144 263 140 220 141 4
516 136 486 151 403 150 455 137 73 141 60
82 143 199 147 393 153 228 152 401 141 193
78 141 226 148 455 142 437 137 209
182 136 249 163 196 148 403 152 391 141 402
34 163 324 151 391 149 401 154 129 153 390 141 1
46 143 5 149 228 152 390 157 209 145 226 154 421
116 163 70 152 129 157 294 153 421 172 323 171 170 165 75 169 232
192 156 77 145 170 134 198 146 371 162 135 160 9 161 193 158 168
456 155 77 158 206 157 59 159 304 145 394
120 154 294 165 30 159 347 153 209 145 149 156 59
456 166 144 164 214 155 168 161 290 165 296 159 129 156 206
428 158 129 157 347 165 87 156 304
367 164 36 155 9 146 283 162 123 161 314
500 164 261 155 193 160 314 158 290
727 155 135 146 96 160 123
474 167 654 136 73 177 113 172 369 154 70 151 196 152 324
130 166 104 170 2 168 441 158 214 161 261 146 203 160 36
133 166 303 158 296 157 30 159 87 154 75 173 77 175 212 171 168 176 48
221 176 226 165 303 170 308 158 144 164 104
88 177 346 163 654 136 306
123 170 317 164 441
33 154 232 172 295 171 327 174 191
201 166 308 168 317 164 2
109 154 170 169 327 173 82 175 274 165 168 174 156
89 163 369 154 323 177 373 169 295 174 81
330 175 246 171 82 174 124 176 358 165 77
129 172 81 177 303 169 191 178 413 173 124 171 156 176 101
341 173 246 171 274 165 212
99 166 226 178 222 173 358 174 101 165 48
437 167 346 163 113 172 373 178 468 174 303
85 177 468 176 222 174 413
