112 299 11
144 3 17 9 47 10 20 23 23 24 41
47 9 2 23 36 4 31 6 19 7 32 19 39 20 36 21 7
58 1 17 10 37 22 10 24 54
40 2 31 5 8 7 33 20 30
32 4 8 7 46 15 20
101 9 37 2 19 7 35 8 48 11 55
100 2 32 4 33 6 35 5 46 8 37 15 3
43 6 48 7 37 15 51 11 1 17 25
165 1 47 2 2 6 37 10 28 11 36 13 5 23 45
212 1 20 3 37 9 28 12 20 13 18 14 32 52 20
147 9 36 6 55 8 1 13 47 17 43
142 10 20 13 37 14 37
115 9 5 10 18 11 47 17 39 12 37 14 20 55 40
768 10 32 13 20 12 37 52 59 55 16
103 7 3 5 20 8 51 16 40 17 20 54 9
483 15 40 51 58 54 29
67 15 20 8 25 11 43 13 39 49 78 54 9 55 5
240 19 77 21 69 22 56
261 2 39 18 77 20 27 21 10
18 2 36 4 30 19 27
234 23 73 24 10 2 7 19 10 18 69 22 8
42 3 10 24 29 21 8 18 56
377 1 23 9 45 2 36 21 73 24 18
124 1 41 3 54 23 18 21 10 22 29
67 27 8 32 43 53 21 56 58
359 27 32 30 29 33 23 35 2 59 9 68 12
79 25 8 26 32 32 3 33 32 59 36
125 36 40 40 25 58 33 60 44 61 35
227 52 6 55 52 40 3 61 61 43 59 48 32 57 41
1082 26 29 33 35 35 45
367 54 47 56 32 36 15 60 57 34 55 41 37
826 25 43 27 3 33 47 34 40 38 36 56 5 65 36
666 27 32 32 47 26 23 30 35 35 4 65 4 66 50
227 32 40 56 29 31 55 38 4 41 23 42 44
275 26 2 30 45 33 4 66 165 68 190
328 28 40 31 15 40 8 41 21 60 27 92 41 94 54
732 41 14 42 21 44 36 45 41 82 3
584 32 36 34 4 42 34 65 18 95 35
706 44 32 82 4 95 43 67 24
571 28 25 36 8 29 3 43 83 61 19 94 81 97 28
685 36 21 31 37 34 23 37 14 42 4 45 12 92 40
157 34 44 41 4 38 34 37 21 44 12 95 1
461 40 83 29 59 97 40
847 42 12 37 36 39 32 82 3 95 10
1302 41 12 92 2 37 41 46 24 82 16
459 92 14 45 24 82 11 81 20
48 52 56 48 9 50 59
402 52 29 29 32 47 9 50 43 57 62
354 17 78 55 11 54 71 58 36 60 31
134 48 43 57 25 47 59
48 16 58 54 42 53 36 56 32
73 10 20 14 59 29 6 47 56 48 29 55 46
209 51 36 25 21 56 31
104 15 9 17 9 16 29 31 47 49 71 51 42 56 20 60 9
192 17 5 13 40 14 16 52 46 29 52 49 11 58 42 61 26
27 54 20 51 32 25 58 32 5 53 31 31 32 34 29
225 29 41 48 62 50 25
61 55 42 49 36 28 33 60 32 61 39
105 27 36 26 9
269 54 9 49 31 28 44 36 27 58 32 31 57
118 55 26 28 35 40 19 58 39 29 61
72 63 18 71 47 100 12 101 24 106 55
82 62 18 71 48
214 73 78 75 16 104 31 105 1 107 50 111 55
355 32 36 33 4 38 18 66 160 67 54 95 71 98 17
896 33 50 35 165 68 125 65 160 98 2 111 219
606 65 54 82 25 95 49 39 24 86 3 88 17 91 1 96 71 98 73
237 26 12 35 190 66 125 111 276
445 71 4 73 35 70 36 72 30 109 6
558 73 4 69 36 72 52 74 80 109 14
48 62 47 63 48 69 4 73 70 106 2
550 73 29 69 30 70 52
136 71 70 106 3 64 78 69 35 70 4 72 29 74 2 75 1 105 4
367 73 2 75 49 70 80 109 2 76 38
734 64 16 73 1 74 49 76 27 109 9 111 213 112 200
811 75 27 109 28 74 38
708 91 1 78 3 89 1 90 6
662 91 2 77 3 89 2
453 81 19 90 16 80 2 83 2 84 2 87 8
663 82 1 91 13 90 1 79 2 84 13
765 92 15 82 2 46 20 79 19 83 9 87 2
473 37 3 44 3 45 16 39 4 46 11 67 25 80 1 81 2 83 6 84 6 91 5
545 82 6 81 9 79 2 84 10
217 82 6 79 2 80 13 83 10
653 86 9 88 3 89 9 90 3 87 9
901 67 3 85 9 87 36 88 19 93 1 96 30
1134 92 27 94 6 81 2 86 36 90 3 79 8 85 9 93 59
594 67 17 86 19 85 3 89 3 91 18
844 88 3 91 1 77 1 78 2 85 9 90 5
1073 91 1 77 6 89 5 79 16 80 1 85 3 87 3
430 82 5 67 1 88 18 77 1 78 2 80 13 89 1 90 1
304 36 41 41 40 45 2 46 14 81 15 87 27 94 8
1251 94 51 86 1 96 16 87 59 99 73
284 36 54 40 81 92 8 87 6 93 51 97 8 99 22
235 38 35 65 71 42 1 44 10 39 43 67 49
227 67 71 98 55 86 30 93 16 99 2 103 43
164 40 28 43 40 94 8 99 47 101 18 106 18
183 65 17 66 2 67 73 111 105 96 55 103 22 108 63
531 94 22 97 47 106 65 105 4 96 2 93 73 103 39
389 62 12 101 49
136 97 18 62 24 100 49 106 46
1067 104 29 105 29 103 2 108 31
951 105 44 98 22 96 43 99 39 102 2 108 17
659 64 31 102 29 105 3 107 22 108 27 111 23
1168 106 45 64 1 73 4 104 3 99 4 102 29 103 44 107 33
203 97 18 62 55 71 2 101 46 73 3 99 65 105 45
599 64 50 104 22 105 33
286 104 27 111 23 98 63 103 17 102 31
671 75 9 69 6 70 14 74 2 76 28 110 20 112 70
905 109 20 112 34
253 68 276 66 219 64 55 75 213 104 23 98 105 108 23 112 86
564 75 200 111 86 109 70 110 34
