412 1203 11
679 12 279 11 2604 2 1144
157 1 1144 3 1425 11 40 6 527 20 897 24 1320
286 7 60 4 1290 2 1425 6 103
105 3 1290 7 857 6 84 17 77 8 275 5 134 15 210
298 4 134 8 274 15 391 14 286
564 3 103 2 527 4 84 20 443 17 379 19 266 18 126
53 29 1551 3 60 4 857 13 918 8 187 9 465
83 4 275 7 187 5 274 10 212 9 266 14 194
47 7 465 10 353 13 61 8 266
190 9 353 13 560 8 212 14 145 21 27
654 1 2604 2 40 24 314 12 1099 28 1485
122 1 279 11 1099 33 933 28 433
69 29 471 16 941 7 918 10 560 9 61 21 135
149 5 286 10 145 8 194 22 364 15 10 21 180
130 4 210 5 391 17 345 22 27 14 10 18 119
375 29 475 23 566 13 941 21 370
134 4 77 6 379 15 345 18 190
1004 17 190 6 126 22 14 15 119 19 256
643 20 65 6 266 22 221 18 256 25 431
260 34 369 2 897 24 1099 38 222 25 36 6 443 19 65
256 23 22 16 370 27 436 32 114 10 27 13 135 22 152 14 180 25 59
40 14 364 15 27 18 14 19 221 25 250 21 152
611 29 645 30 125 16 566 39 173 32 350 21 22
271 2 1320 53 379 37 236 20 1099 38 311 11 314 50 1586 35 127 28 1036
274 34 553 27 266 31 53 20 36 22 250 19 431 21 59
263 40 1767 35 1474 33 812
946 31 266 32 399 21 436 25 266
402 24 1036 11 1485 12 433 36 304 35 1647 33 99
72 7 1551 85 1029 66 984 30 699 43 1413 68 5 23 645 16 475 13 471
115 29 699 23 125 43 784 39 229 46 353
140 34 363 27 266 32 150 41 367 38 147 25 53 42 287 44 51
143 23 350 39 363 27 399 31 150 41 213 21 114
88 26 812 12 933 36 246 35 45 28 99
968 20 369 38 568 25 553 31 363
498 26 1474 53 619 40 997 24 127 36 229 33 45 28 1647
620 35 229 33 246 28 304
410 53 1101 55 137 50 802 24 236 59 431 56 495
276 34 568 24 311 50 88 31 147 54 408 20 222 44 254 49 122
84 23 173 30 229 41 440 32 363 46 421
1690 154 1620 113 1500 26 1767 53 1041 112 587 35 997
100 39 440 32 213 52 222 46 110 31 367 42 48 47 384
752 41 48 47 394 31 287 51 61 45 13 49 150 44 255 48 39
40 29 1413 30 784 68 1371 58 1006 46 255
623 31 51 38 254 45 0 49 171 42 255 48 49
837 49 92 44 0 48 80 42 13
89 30 353 43 255 39 421 52 408 58 128 41 110
573 63 3 61 2 52 155 62 423 41 384 51 322 42 394
364 45 80 44 49 42 39
882 54 350 57 60 51 11 38 122 45 92 42 150 44 171
211 37 802 24 1586 38 88 56 823 54 326
927 61 315 47 322 57 260 42 61 49 11
139 58 261 65 414 46 408 64 246 62 377 41 222 47 155
277 55 385 37 1101 71 697 24 379 35 619 40 1041 112 809
835 50 326 56 194 59 164 38 408 57 659 60 53 49 350
367 53 385 59 803 37 137 71 799 60 418
121 37 495 50 823 59 392 54 194
123 61 246 54 659 60 300 51 260 49 60
137 43 1006 69 188 52 261 68 623 65 497 46 128 80 146
156 55 803 37 431 56 392 60 271 54 164
1041 63 156 61 397 55 418 71 45 59 271 54 53 57 300 67 97 77 156 70 154 75 667
375 63 260 57 246 60 397 47 2 51 315
1989 63 352 52 377 64 261 47 423
1436 67 377 60 156 61 260 64 18 62 352 47 3
2249 63 18 52 246 62 261 65 237 67 88 73 429 72 113
157 69 668 52 414 58 497 78 271 64 237 73 37
165 29 984 101 469 83 1606 85 1044 88 415 128 54 86 70 68 2036 90 344
2110 63 377 64 88 72 108 60 97 70 280
264 29 5 43 1371 58 623 86 698 80 620 66 2036
168 87 498 91 17 58 188 65 668 78 470 80 520
1526 72 117 73 14 67 280 77 115 76 285 60 154
379 53 697 55 799 74 403 112 600 60 45 75 368
2507 64 113 67 108 73 79 70 117
964 65 37 78 309 64 429 72 79 79 87 76 294 70 14
970 148 542 71 403 112 335 175 742 124 151 120 348 75 65 99 201 156 246 155 42
781 71 368 74 65 95 80 89 62 84 171 94 83 77 149 81 72 60 667 99 842 92 13
1403 73 294 77 302 79 159 70 285
2168 81 332 79 122 76 302 70 115 60 156 75 149
40 69 470 65 271 91 356 89 159 82 278 96 55 121 400 73 309 79 67
755 78 67 82 117 84 174 73 87 77 122 81 62 76 159
98 69 520 58 146 86 362 87 250 68 620
1435 84 290 77 332 75 72 79 62
1374 78 278 89 465 84 399 79 117
158 66 1606 85 1732 88 268
1325 82 399 89 24 75 171 79 174 81 290
142 29 1029 83 1732 108 778 66 1044 88 195
141 87 236 90 888 80 362 68 698 66 70
194 69 498 86 236 91 189 130 554 90 251 80 250
223 101 489 83 268 85 195 66 415 108 29
2432 78 159 82 465 95 69 96 520 84 24 75 62
379 128 789 86 888 87 251 66 344 137 201 173 170 130 348
88 69 17 87 189 137 285 130 347 78 356 121 479 168 327 166 274 177 24
692 94 110 75 13 99 126 100 23 93 35
740 99 115 92 35 100 53 104 6 110 49 107 96 106 29
816 95 105 102 75 75 83 92 110 104 1 100 28
1379 94 105 102 69 89 69 96 204 75 80 105 39 103 94 97 54
1212 78 55 95 204 89 520 121 108 122 364 97 49
1039 134 58 95 54 96 49 122 69 98 75 103 122 119 76 111 26 109 11
940 134 111 139 52 97 75 126 86 131 2 136 71 111 23
623 74 201 75 842 120 506 92 126 107 72 93 115
813 94 28 92 23 104 34 93 53
53 108 990 178 69 88 489 66 469 128 989
662 95 69 105 22 94 75 104 37
680 95 94 105 62 97 122 104 0 110 5 109 38
408 105 31 102 37 103 0 94 1 100 34 110 50 93 6
580 95 39 102 22 103 62 104 31
608 109 16 110 64 117 26 93 29 118 6 114 62 116 9 107 44
717 99 72 120 222 93 96 114 9 106 44 115 43
207 101 990 85 778 88 29 178 1429
674 103 38 119 23 97 11 110 46 117 31 106 16
532 103 5 104 50 109 46 93 49 106 64
515 98 23 119 27 97 26 118 45 126 70 116 25
903 154 670 148 867 159 278 53 809 71 600 40 587 74 335
169 154 662 250 1225 40 1500 207 568 208 385 222 14 206 555
612 116 29 106 62 115 53 107 9 125 10
630 120 6 114 53 107 43 125 22
646 118 33 111 25 127 30 126 31 114 29 125 16 106 9
600 119 39 109 31 118 48 106 26
586 119 12 117 48 111 45 106 6 116 33
575 109 23 97 76 117 39 118 12 111 27
815 74 348 124 116 123 433 129 62 99 506 107 222 125 28 115 6
100 78 400 96 108 91 479 122 255 166 479 152 117 145 27
471 134 158 96 364 121 255 138 237 97 69 145 86
847 132 90 140 149 124 243 142 81 120 433 126 4 127 39 129 72
930 74 151 155 318 146 51 150 301 120 116 123 243 142 283
494 129 30 120 28 127 25 114 10 116 16 115 22
531 98 86 132 38 131 24 123 4 111 70 127 13 116 31
643 123 39 129 37 126 13 125 25 116 30
71 101 989 173 324 90 789 178 769 66 54 194 442
769 123 72 120 62 127 37 125 30
439 87 554 137 626 90 348 91 347
541 98 2 132 40 135 40 133 14 126 24 136 55
710 140 15 123 90 126 38 131 40 133 38
774 132 38 135 27 131 14 140 53
911 138 113 122 158 139 126 98 111 97 58
711 141 29 140 11 133 27 131 40 136 18
719 139 56 143 3 98 71 135 18 131 55 141 12 144 45
382 161 573 173 197 90 201 130 626 91 285 168 117
895 134 113 122 237 147 85 143 15 139 28 153 121 145 94
896 134 126 138 28 98 52 143 147 136 56
894 132 15 135 11 133 53 123 149 141 19 142 188
609 135 29 136 12 140 19 146 16 144 45 142 43
789 140 188 146 5 124 283 141 43 123 81
887 163 55 138 15 151 49 139 147 147 29 149 110 144 15 136 3
1276 143 15 136 45 146 36 149 56 141 45
888 121 27 122 86 138 94 165 166 152 133 153 155 158 40 157 9
1263 149 38 144 36 150 53 124 51 141 16 142 5
921 163 106 138 85 143 29 160 64 162 19 153 76
221 74 542 112 867 159 592 175 170
676 151 48 143 110 146 38 144 56 150 43
999 151 79 155 324 146 53 149 43 124 301
1433 163 218 172 7 164 36 169 2 143 49 155 167 149 48 150 79
459 121 117 165 188 145 133 166 63 167 243
1027 138 121 145 155 160 6 158 44 147 76
170 207 628 200 449 159 206 113 662 40 1620 112 670
1147 74 42 151 167 164 172 156 565 124 318 150 324
1143 175 29 74 246 182 11 155 565 174 42 164 101 171 634 183 5 176 9
557 165 108 145 9 160 29 158 72 169 65 162 101 167 11
875 145 40 160 42 153 44 157 72
79 154 206 148 592 201 197 200 461 112 278 175 306 188 478 182 21
546 158 42 157 29 147 64 162 37 153 6
687 137 573 192 117 173 502 168 630
1082 163 164 160 37 157 101 147 19 169 130
987 147 106 162 164 169 42 151 218 143 55
1108 151 36 155 172 174 85 172 114 156 101
808 145 166 152 188 157 108 167 82
237 121 479 152 63 91 274 177 377 179 23 184 250 167 187
1437 165 82 152 243 157 11 169 63 179 101 170 173 166 187
273 137 117 161 630 192 70 205 113 195 570 91 327 177 92
941 163 42 151 2 172 214 157 65 162 130 180 167 186 101 167 63 170 88
370 180 136 169 88 179 186 167 173 185 9
1289 182 191 156 634 181 244 183 100 187 345
1550 151 7 174 55 164 114 181 23 169 214 186 117 176 126
130 128 324 194 398 202 289 137 197 161 502 90 170 192 465
1434 172 55 164 85 176 41 156 42
376 148 170 159 306 74 742 182 842 156 29
1474 174 41 156 9 181 42 172 126 183 112
259 195 588 168 92 91 24 204 19 190 374 166 377 184 404
133 101 69 128 769 194 329 235 290 108 1429 221 2310 202 234
357 170 186 185 92 184 234 167 101 166 23
350 170 136 169 167 185 285 186 161 191 89
66 186 66 187 345 172 23 176 42 183 65 171 244
1273 159 21 175 842 189 391 188 76 197 381 198 92 187 65 156 11 171 191
1127 156 5 181 65 176 112 171 100
276 190 42 177 404 179 234 185 286 166 250
111 180 285 191 174 190 229 179 92 170 9 184 286
1282 181 66 172 117 193 165 187 110 180 161 169 101 191 128
775 182 65 198 452 214 30 181 345 171 345 193 317 196 7 186 110
156 201 511 203 96 159 478 189 174 197 107 182 76
1001 188 174 197 403 182 391
1268 199 628 204 200 191 119 185 229 177 374 184 42
1452 209 104 193 316 196 297 199 61 180 89 186 128 190 119 185 174
524 211 294 202 84 161 117 173 465 223 89 233 38 168 70 205 595 224 69
213 186 165 187 317 191 316 196 228
553 128 442 178 329 173 398 202 455
388 205 260 168 570 204 568 177 588
236 210 104 214 358 209 321 193 228 187 7 191 297
823 203 50 189 403 188 107 216 507 198 450 182 381
973 197 450 182 92 216 99 187 452 217 605 214 526
722 237 269 218 308 209 278 191 61 204 106 190 628
25 154 449 201 631 227 722 215 134 207 400 159 461 213 381
577 159 197 200 631 215 186 203 402 188 511
358 194 455 178 234 211 368 173 289 221 248 192 84
172 201 402 215 415 188 96 197 50 216 367
543 253 83 236 188 218 217 205 361 225 171 199 106 195 568 190 200 177 19
573 192 595 195 260 168 113 204 361 225 36 224 98 220 391
157 113 555 250 447 222 288 251 383 248 156
755 154 628 113 568 200 400 212 590 208 55 213 16
264 113 385 219 415 222 250 212 86 207 55 213 414
201 237 352 243 295 210 246 199 278 191 104 196 321
50 226 7 243 229 209 246 214 317 196 104
800 202 368 221 369 223 344 192 294
865 208 86 207 590 213 539
1051 227 211 200 381 219 160 242 8 212 539 208 414 207 16
405 198 526 226 63 217 55 210 317 187 30 196 358
105 201 186 203 415 227 275 200 134 216 26 249 436 228 499
375 203 367 197 507 198 99 217 119 229 66 215 26 228 473
817 198 605 226 208 216 119 214 55 229 549
103 236 505 237 400 204 217 199 308
408 213 160 242 532 208 415 222 296 248 46
893 205 391 225 238 239 71 224 115 240 186
166 178 2310 211 369 202 248 235 221 246 2245 223 124 234 0
369 113 14 206 288 219 296 208 250 248 192
511 211 344 221 124 192 89 233 261 234 248
1833 233 317 192 69 241 21 205 98 239 68 238 128 220 115
980 259 35 252 17 266 96 253 708 241 349 205 36 204 171 240 196 220 238
88 229 62 217 208 214 63 230 119 210 7 243 485 254 330 231 52
1464 249 438 264 587 215 275 200 722 242 781 213 211
1285 232 240 229 42 216 473 215 499 249 294 231 325 268 7 269 226
744 226 62 217 549 230 126 232 394 216 66 228 42
1101 226 119 229 126 232 202 231 249
1451 226 52 230 249 232 226 228 325 254 206 265 112 269 219 255 4 260 65 257 122
1052 230 202 229 394 231 226 228 240
582 223 261 245 184 234 38 192 38 241 73 224 317
407 246 341 223 248 221 0 245 210 252 89 233 38
257 178 290 259 654 295 1848 221 221 246 1781 266 154 300 2138 279 131
404 258 143 253 449 237 36 218 505 204 188 247 285
126 244 89 236 36 247 420 243 275 218 400 209 352 199 269
954 241 54 239 25 240 128 224 128
1135 238 25 224 68 220 71 240 13
1549 241 93 225 196 239 13 238 128 220 186
1683 245 106 252 408 233 73 225 349 240 93 224 21 238 54
570 256 829 227 781 264 207 251 116 219 532 213 8 248 29
248 261 466 244 19 237 275 226 485 254 63 209 295 210 229
76 288 61 280 83 261 455 273 282 271 21 237 89 243 19 282 241 247 537
274 233 184 241 106 252 157 234 210
457 259 517 235 1781 221 2245 252 118 234 341
296 244 537 258 130 271 265 236 285 237 420
809 206 156 251 128 219 46 242 29 222 192
294 227 438 264 535 215 436 268 622 228 294
202 275 809 256 129 113 1225 251 394 267 1307 206 447
81 256 234 250 394 206 383 242 116 248 128
1450 259 528 246 118 245 157 225 17 241 408 234 89
921 258 518 266 158 204 83 236 449 225 708
214 261 86 226 330 243 63 263 264 231 206 257 201
1038 262 47 260 179 257 211 231 4
738 275 895 251 234 250 129 242 829 264 60
1572 254 201 263 94 255 211 262 39 231 122
1481 279 27 281 74 276 326 266 118 253 518 271 255 236 143 247 130
769 246 517 235 654 266 522 225 35 252 528
228 265 220 255 179 262 2 231 65
35 280 297 243 466 254 86 244 455 263 196 277 257
1339 263 92 265 97 270 124 255 47 257 39 260 2
118 261 196 277 86 274 260 254 264 270 157 257 94 262 92
232 275 170 256 60 227 587 296 730 249 535 268 636 242 207 267 296
134 260 220 231 112 269 188 270 93 262 97
780 259 522 235 154 258 118 279 638 225 96 253 158
56 275 1380 303 2630 250 1307 296 456 312 27 264 296
1194 296 345 264 636 283 507 278 106 249 622 272 519 228 7 269 164
405 272 611 228 226 268 164 265 188 270 326 231 219
164 274 161 284 38 272 49 263 157 265 93 269 326 262 124
64 244 21 273 284 258 255 276 204 247 265
688 284 170 289 135 283 414 268 519 270 49 269 611
295 288 229 244 282 285 126 271 284 290 182 276 94
272 277 361 284 446 263 260 270 161
777 256 895 250 809 267 1380 264 170
652 285 364 287 1 273 94 258 326 281 107 271 204
144 280 380 261 257 263 86 289 27 284 54 274 361 286 202
244 296 164 283 878 305 264 297 4 308 768 268 106
986 295 83 235 131 291 33 258 27 281 586 266 638
175 261 297 244 83 282 472 277 380 286 99
328 292 322 291 287 287 93 258 74 279 586 276 107
102 288 468 293 332 280 472 244 241 286 82
492 289 367 268 507 278 878 272 414 297 115
99 277 54 274 446 289 515 272 170 270 38
719 276 364 287 448 273 126 290 202
144 293 517 280 99 282 82 277 202 289 314 299 47 297 434
213 292 424 294 151 285 448 290 118 276 1 281 93
280 273 229 244 61 290 413 298 16 302 246 293 104 282 468
241 277 27 284 515 286 314 272 135 283 367 297 243
148 288 413 298 371 294 20 285 202 287 118 273 182
756 295 560 292 282 301 193 294 244 279 33 281 287
635 281 322 287 424 291 282 294 158
155 288 104 306 444 302 152 282 332 299 209 286 517
246 292 158 291 244 304 273 298 366 290 20 287 151 301 242
1678 291 560 301 1702 300 35 235 1848 279 83
128 312 1318 310 214 308 279 278 164 268 345 264 730 267 456
123 286 434 289 243 283 115 305 440 299 395 278 4
64 288 16 304 245 302 223 290 371 294 366
379 306 75 293 209 313 129 286 47 314 274 305 147 297 395 315 306
105 295 35 235 2138 304 19 301 1955 318 506 325 4645 307 22
41 295 1702 291 193 304 391 294 242 300 1955
102 288 246 306 395 293 152 304 222 307 166 298 223
167 328 2508 311 747 312 0 267 2630
97 302 222 298 245 307 521 294 273 301 391 300 19
518 297 440 299 147 315 14 309 355 308 238 278 264
133 313 412 307 170 302 395 293 444 299 75
39 306 170 304 521 302 166 318 536 300 22 313 350
185 296 279 310 702 305 238 309 26 278 768
228 310 299 316 377 305 355 315 316 308 26
210 321 237 317 415 296 214 312 142 316 130 309 299 308 702
435 317 139 319 232 328 514 334 236 332 387 333 211 329 158 312 1326 303 747
744 317 60 311 1326 303 0 296 1318 310 142 267 27
553 306 412 318 39 307 350 299 129 323 475 314 481
121 313 481 326 126 324 248 323 53 299 274 320 115 315 371
102 314 371 320 222 316 15 305 14 299 306 309 316
214 321 389 310 130 322 316 320 90 309 377 315 15
1381 321 651 319 926 311 139 327 10 310 415 312 60 331 60
407 300 506 307 536 313 39 323 562 325 425
1594 317 926 311 232 329 927 331 64
233 322 367 327 22 324 356 314 115 316 90 315 222
132 322 4 316 389 327 440 317 651 310 237
382 321 4 316 316 327 281 320 367
111 336 424 318 562 325 38 313 475 326 393 314 53
137 330 260 327 253 326 488 320 356 314 248
114 340 5269 336 268 318 425 300 4645 323 38
367 336 444 330 207 337 185 323 393 324 488 314 126
169 321 440 317 10 330 176 322 281 331 494 324 253 320 22
170 333 274 311 514 345 2595 303 2508
836 319 927 311 158 334 19 331 15 335 952
269 326 207 324 260 337 556 327 176 331 163 343 157
124 317 60 319 64 330 163 329 15 327 494 343 556 335 25 342 105 339 187
103 311 387 334 764 339 1 338 421 341 540 333 71
637 347 135 328 274 311 211 345 190 350 681 338 818 332 71 351 87
447 311 236 329 19 335 617 332 764 339 211
1045 329 952 334 617 331 25 339 403
370 340 506 346 187 325 268 337 145 323 424 326 444
509 336 145 346 579 330 556 326 185 355 9 354 17 348 277 343 153
1815 344 291 341 354 333 818 332 421 351 119
113 335 403 331 187 334 211 342 508 332 1 341 236 344 201
322 336 506 346 946 325 5269 349 4844
206 339 236 338 354 344 302 332 540
177 343 392 331 105 348 195 352 599 339 508 344 160
195 330 157 337 153 348 320 331 556 342 392
610 342 160 339 201 353 174 365 45 352 267 350 304 338 291 341 302 359 233 351 1
136 360 361 356 581 347 177 328 2595 357 354 366 1547 333 190
417 340 946 336 187 337 579 349 672 355 532
1520 356 796 350 896 353 453 333 135 345 177
100 337 277 343 320 342 195 352 208 354 581 358 201
266 340 4844 346 672 364 2162 380 4277 355 487 361 67
1921 347 896 353 138 333 681 344 304 351 193
2145 350 193 338 119 344 1 333 87
619 342 599 348 208 344 267 359 480 358 465
103 360 163 356 440 347 453 368 43 350 138 365 737 344 174
161 337 17 355 485 348 581 361 252 358 171
325 346 532 337 9 349 487 354 485 361 319
1149 360 1062 347 796 353 440 345 581
359 360 1295 379 69 368 70 345 354 366 470 374 1073
152 352 465 348 201 354 171 362 344 361 15 367 233 363 5 359 95
36 373 110 365 635 352 480 344 233 367 334 358 95 370 263
273 368 338 353 163 357 1295 356 1062 345 361
70 349 67 355 319 364 264 354 252 362 392 358 15
149 364 56 363 492 361 392 358 344
387 364 27 362 492 367 361 358 5 371 314
261 349 2162 382 467 380 1468 372 6 361 264 371 440 363 27 362 56
30 373 398 368 433 353 737 359 635 344 45
302 387 733 384 37 357 470 374 745 392 830 345 1547 397 593 396 30
653 358 233 363 361 359 334 371 19 369 372 370 147
89 360 338 379 784 383 396 357 70 373 484 353 43 365 433
223 378 163 376 211 372 147 367 372 371 143 370 23
80 375 249 376 405 373 529 367 147 359 263 369 23
252 372 427 364 440 367 19 363 314 369 143
323 382 300 377 102 378 162 364 6 369 147 371 427
23 375 67 383 63 368 484 370 529 359 110 365 398
470 384 672 379 71 385 59 357 1073 366 745
34 386 296 373 67 383 414 381 249 370 249 376 289
423 375 289 381 95 378 278 370 405 369 211
407 381 248 382 291 380 44 372 102 378 233
537 381 80 377 233 376 278 372 162 369 163
39 388 232 390 234 385 715 383 157 368 784 357 69 374 71
283 386 2901 349 4277 381 332 382 764 364 1468 377 44
847 386 382 375 249 380 332 376 95 378 80 377 248
1439 364 467 380 764 372 300 377 291
86 386 371 375 414 379 157 390 666 373 63 368 396
68 387 418 389 283 366 37 391 181 374 672 385 481
30 389 296 384 481 379 715 388 116 374 59
513 395 2185 383 371 390 803 380 2901 375 296 381 382
445 384 418 366 733 391 378 392 742
154 393 354 389 298 394 327 379 232 390 227 385 116
44 385 296 388 298 384 283 394 145 391 147
73 395 1075 386 803 393 162 379 234 388 227 383 666
48 398 339 387 378 389 147 384 181 394 299 399 44 392 264
328 387 742 391 264 399 194 366 830 397 1536
240 395 632 400 310 388 354 390 162 398 191 394 209
48 393 209 398 334 389 145 388 327 391 299
42 403 1757 407 345 400 496 393 632 390 1075 386 2185
1073 405 801 366 30 397 1358 408 683 412 1420 404 72
334 392 1536 399 262 401 40 405 770 366 593 404 145 396 1358
121 400 150 393 191 399 545 391 339 394 334
114 400 93 398 545 391 44 392 194 401 589 397 262
147 395 496 406 139 407 628 401 241 399 93 398 150 393 310
214 406 278 400 241 402 190 399 589 404 155 397 40
101 406 331 407 69 410 53 401 190 409 199 404 441
223 412 27 407 1038 410 560 411 494 395 1757
176 402 441 401 155 405 291 397 145 408 503 409 21 396 72
591 397 770 404 291 396 801
52 407 340 402 331 401 278 400 139
209 403 1038 395 345 406 340 410 48 402 69 400 628
149 409 256 412 849 404 503 396 683
397 410 242 411 181 402 199 408 256 412 20 404 21
319 403 560 407 48 402 53 411 440 409 242
228 403 494 410 440 412 992 409 181
117 403 27 411 992 408 849 409 20 396 1420
