307 845 11
112 2 381 3 295 6 25 8 6 7 79 9 180
81 4 67 5 224 1 381 6 178
87 1 295 7 197
146 6 302 2 67 5 284
71 4 284 2 224
229 4 302 11 212 2 178 1 25 12 453 9 36
43 3 197 8 202 10 55 1 79
23 7 202 1 6 9 418 10 310
87 6 36 12 272 8 418 1 180 13 62 14 279 10 42
72 8 310 7 55 13 112 9 42
63 21 243 17 296 6 212 12 76
272 11 76 6 453 17 131 9 272 14 222 15 156
102 28 15 23 431 24 197 19 71 14 213 9 62 10 112
174 12 222 15 197 18 64 13 213 19 63 9 279
324 12 156 17 93 20 73 14 197 18 62 22 44 16 138
608 20 48 15 138 22 154 18 53 19 124
203 11 296 12 131 21 326 22 455 15 93
130 20 32 15 62 16 53 14 64 19 148
604 16 124 18 148 22 80 25 88 13 71 24 231 14 63
553 16 48 18 32 15 73
143 11 243 17 326 26 31 22 202 29 80
153 17 455 15 44 16 154 26 349 21 202 19 80 25 267
134 27 330 13 431 28 231
120 25 258 13 197 28 174 19 231
299 26 371 30 126 22 267 19 88 28 62 24 258
60 30 270 25 371 22 349 33 138 29 651 21 31
220 31 319 23 330 28 195
294 27 195 31 17 30 342 25 62 13 15 23 231 24 174
137 38 532 26 651 33 263 21 80
292 31 196 26 270 34 380 33 60 28 342 25 126
67 27 319 30 196 34 228 35 280 28 17
91 37 273 47 304 35 264 48 363
85 38 219 43 324 26 138 30 60 29 263 34 2
77 43 54 31 228 30 380 33 2 41 319 35 47 42 168
138 31 280 34 47 47 242 32 264 42 264
289 44 150 37 306 49 255 53 123 48 35
162 36 306 48 142 32 273
30 40 627 43 260 29 532 33 219
122 45 418 46 36 44 64
104 62 46 38 627 43 199 68 790 56 320 71 125 72 24
52 43 196 50 204 34 319 51 207 42 225
209 34 168 41 225 47 81 35 264 51 105
52 40 199 38 260 56 156 33 324 50 387 41 196 34 54
902 45 237 52 143 36 150 39 64 49 253
314 46 62 59 239 39 418 58 61 52 183 44 237
404 45 62 63 122 61 282 39 36 59 303
71 35 242 32 304 42 81 51 224 54 119 60 269 48 147
481 64 330 36 35 53 377 37 142 47 147 32 363 60 26
328 57 88 52 153 36 255 44 253 53 258
94 56 176 43 387 41 204 55 337 51 126
223 50 126 55 111 41 207 47 224 42 105 54 287
65 45 183 57 238 58 280 44 143 49 153
70 57 67 70 259 64 120 36 123 49 258 48 377
49 55 112 69 287 47 119 51 287 60 247
24 65 308 56 13 50 337 69 72 51 111 54 112
80 65 231 40 320 71 400 43 156 55 13 73 42 50 176
975 70 340 74 196 66 103 49 88 52 238 58 93 53 67
46 45 61 59 259 67 57 57 93 66 228 52 280
176 45 239 63 193 79 58 46 303 82 12 58 259 67 139
302 81 168 64 229 89 182 91 119 69 85 47 269 54 247 85 30 48 26
83 63 248 46 282
27 75 454 40 46 68 576
88 86 88 61 248 79 324 46 122 59 193
732 78 190 70 141 81 247 92 86 53 120 60 229 48 330
118 69 146 76 203 55 308 73 133 56 231
325 67 236 57 103 74 98 58 228 77 160
38 82 278 59 139 84 42 58 57 77 49 66 236
23 75 131 80 146 101 129 99 165 40 790 62 576 72 23
26 65 146 55 72 85 195 60 85 76 153 54 287
649 78 267 57 340 64 141 53 259 88 60 74 72
111 40 125 56 400 72 393 73 275 98 11
34 99 480 40 24 68 23 108 57 71 393 98 235
102 65 133 56 42 71 275 76 218 98 309 95 108
95 57 196 70 72 102 102 93 211 77 8 88 152 66 98
30 83 255 80 318 62 454 68 131
538 65 203 69 153 73 218 96 132 95 95 85 225
155 84 121 67 49 74 8 66 160 103 28 106 126 93 214
515 92 199 94 204 64 190 70 267 88 70
21 63 324 86 154 90 190 82 283 59 58
112 83 248 75 318 101 360 68 146
380 92 181 64 247 60 168 91 156 105 43 100 218
19 79 283 90 10 59 12 84 230 67 278
20 132 451 147 14 104 442 101 49 80 248 75 255 110 64 123 5
80 82 230 90 203 112 88 106 166 77 121 67 42
131 89 255 69 195 60 30 96 144 97 163 76 225
106 63 88 87 151 79 154 90 195 111 239
97 86 151 111 170 140 413
1170 78 70 70 60 74 152 102 226 94 246 118 61 109 16 124 141
155 60 182 91 260 85 255 97 116
102 86 195 79 190 82 10 84 203 112 166 111 186 134 118
185 81 156 89 260 60 119 100 179 97 85
753 78 199 81 181 94 34 64 86 105 166 107 118 113 60
53 74 211 103 25 102 108 77 214
864 78 204 92 34 88 246 109 20 107 188
227 73 108 96 437 98 324 135 360 76 95
145 156 196 135 10 95 437 97 316 126 8 85 144 76 132
102 128 221 89 116 91 85 100 64 96 316 126 229 85 163
324 72 235 71 11 73 309 95 324 136 123 135 34 108 228
65 110 175 101 209 108 175 68 165 72 480
148 81 218 116 135 128 92 91 179 105 142 97 64
79 83 49 110 362 80 360 99 209 68 129
133 74 102 103 204 93 108 88 226 118 131
103 102 204 118 25 129 150 106 161 93 25 77 28
146 83 442 147 204 139 176 150 304
823 81 43 92 166 116 222 100 142 113 57 133 71 117 100 122 35
83 84 166 112 143 103 161 129 134 77 126
1439 94 188 92 118 109 115 113 122
64 110 192 123 217 99 175 72 57 136 454 98 228 151 17
350 94 20 107 115 113 25 125 31 119 17 88 16 120 69 124 71
38 83 64 99 175 108 192 101 362 123 320
47 86 239 87 170 90 186 140 161 145 237 134 47
320 84 88 90 166 137 183 106 143 134 233 129 14 144 50
1350 92 60 107 122 105 57 109 25 125 7 117 75 114 74
1067 113 74 125 2 115 11 117 49 121 16
617 117 16 121 21 114 11
123 128 300 141 37 100 135 105 222 133 143
985 105 100 113 75 115 16 122 114 121 87 114 49
324 137 82 146 28 103 25 102 131 129 198 88 61 124 16 138 306 131 27 143 96
461 127 22 125 2 109 17 120 25
434 127 87 119 25 109 69 130 51 122 3 124 105
626 127 79 125 42 115 21 117 87 122 9 114 16
1118 105 35 133 192 127 40 117 114 121 9 142 132 130 82 131 46 120 3
20 83 5 132 293 110 320 151 346 108 217
531 88 141 109 71 130 86 118 16 131 161 120 105
346 113 7 127 30 109 31 119 2 114 2 121 42
142 128 252 158 118 170 129 141 181 96 8 156 300 97 229
1220 125 30 121 79 119 22 120 87 122 40
311 116 300 126 252 141 135 100 92 97 221
111 137 232 112 14 103 150 118 198 106 134
1120 131 125 122 82 124 86 120 51
652 142 46 130 125 122 46 124 161 138 206 118 27 148 65
280 164 66 83 451 147 381 151 240 123 293
620 116 143 105 71 141 43 122 192 152 198 142 98
85 90 118 111 47 145 213 112 233 153 36 144 236
175 187 198 163 81 96 10 156 340 95 360 136 379 166 210 98 34
71 166 14 135 379 159 469 98 123 108 454 151 3
40 118 82 146 258 129 232 112 183 144 65
1723 131 206 118 306 148 261 155 40 143 22
137 150 364 104 176 160 31 149 472
134 87 413 111 161 145 260 153 13
166 116 37 128 135 158 268 161 75 126 181 133 43 152 320
453 133 98 152 146 122 132 154 127 131 46 148 161
132 157 177 146 186 167 133 138 22 118 96 155 267
85 137 65 112 50 134 236 153 164 165 12 157 54 146 170 162 80
102 111 237 140 260 134 213 153 369
50 137 258 157 194 143 186 118 28 144 170
265 173 35 164 379 83 14 132 381 185 211 104 204 150 373
1379 142 161 154 136 138 261 131 65 155 225
168 139 472 160 523
414 147 373 184 89 193 201 139 364 104 304 160 2 201 20 199 94 185 97
78 164 15 175 188 132 240 123 346 172 155 168 132 136 3 159 147 108 17
504 161 56 141 320 171 64 133 198 154 170 142 146
77 145 369 140 13 134 36 165 342 144 164
189 169 258 171 220 152 170 142 127 155 18 148 136
257 169 233 167 153 154 18 138 40 148 225 143 267
239 170 283 163 189 96 196 126 300 135 340
99 167 79 143 177 146 194 162 288 174 9 144 54
134 178 145 161 202 141 268 181 72 126 118 170 174
24 168 302 179 59 136 469 166 310 151 147
92 184 560 139 31 149 523 150 2
389 191 150 158 202 181 165 171 242 141 75 152 56
209 157 288 174 213 144 80
76 186 173 202 25 187 256 178 55 170 203 192 107 135 81 156 189
138 173 85 132 66 147 379 177 308 175 284 151 15
39 153 342 144 12
259 187 222 197 272 179 284 136 14 135 210 159 310
92 157 79 182 39 174 259 169 9 180 330 155 153 143 133
45 172 349 188 2 179 259 151 132 159 302
148 154 258 171 82 189 27 190 146 180 119 155 233 167 9
139 178 239 158 174 126 129 156 283 163 203
185 191 52 161 242 169 82 189 267 152 64 154 220
21 175 275 183 108 151 155 188 72 168 349
711 164 85 147 35 185 386 177 175 203 286 200 138
73 157 9 162 213 182 136 176 204 167 259
83 164 284 177 85 151 188 183 175 172 275
42 182 389 174 204
208 173 175 164 308 175 85 203 192 183 256
192 158 145 181 286 170 239 194 74 192 283 163 55
38 207 101 188 357 197 158 168 259 166 284 159 59
970 182 0 198 170 195 111 169 119 190 350 167 330
195 191 245 178 286 158 72 194 132 161 165
124 176 389 174 136 198 514 167 39 180 0
61 177 256 175 175 209 230 203 49 172 108 188 409
329 193 531 160 560 150 89
676 173 386 147 211 201 403 150 97 200 49
66 205 111 187 273 197 79 163 173 202 363
155 186 273 197 234 163 256 135 198 166 222
434 213 238 209 77 183 409 217 70 207 224 172 72 179 357 168 2
72 191 326 195 31 204 102 211 86 169 27 171 267 190 467
241 195 297 169 146 189 467 180 350
233 189 326 204 259 194 118 181 245 161 150 171 52
229 206 164 202 299 178 283 194 161 163 107
303 184 531 208 238 150 201 199 349 196 141
148 191 118 204 379 206 285 212 54 178 74 181 132 192 161
74 210 568 198 92 189 31 190 297 228 349 223 101 180 111 211 231
1052 208 79 193 141 201 185 200 230 199 170
113 207 266 205 296 186 79 187 234 179 158 166 272
34 210 408 182 514 195 92 180 170
272 193 349 201 246 196 170 150 94
193 173 138 208 358 220 37 203 215 215 313 201 18 196 230 185 49
979 196 185 199 246 150 20 185 403 200 18
343 205 27 186 363 206 47 214 240 163 25 192 299
321 173 286 177 192 209 391 183 49 200 215 215 57
241 191 259 212 139 222 138 194 379 189 102 211 430
93 216 360 218 20 207 135 197 296 186 111 214 275 202 27
243 194 285 212 243 214 313 192 164 202 47
84 213 209 225 236 216 161 188 224 205 135 197 266 179 101
340 219 267 224 139 234 202 193 238 220 121 200 358 196 79
380 183 230 203 391 215 259 217 450 188 77
79 198 408 195 568 223 76
89 195 231 204 430 232 27 222 315 228 355 189 86
308 231 243 236 146 204 139 206 243 222 91 194 54 214 158 230 219
257 207 209 225 358 227 320 226 231 188 238 217 46
171 231 18 218 265 205 275 206 313 212 158 202 240
272 220 369 221 282 209 259 203 57 200 313 217 73
193 229 113 225 188 207 161 205 360 218 356
308 213 46 226 483 221 146 209 450 215 73 188 70
111 231 383 229 57 238 269 216 356 240 9 205 20 214 265
71 224 425 208 267
163 244 147 235 230 234 270 208 121 221 79 200 37 215 369
114 237 276 244 326 226 160 227 238 220 79 217 146 215 282
84 204 138 212 91 232 205 230 258 211 315
26 210 76 195 101 232 39 228 591 241 190
290 219 425 233 28 208 139 234 508
105 213 358 229 430 227 142 207 236 216 188
484 213 231 227 341 221 160 217 483
227 237 144 243 327 213 320 226 341 229 264 221 238 225 142 246 53
507 195 349 232 395 211 355 223 591
206 246 188 239 475 227 264 225 430 238 139 216 113 218 57
340 236 427 212 219 232 340 222 258 241 34
342 240 122 242 286 218 383 236 257 212 243 214 18
106 230 340 222 205 211 27 228 395 241 402 223 39
67 255 237 224 28 247 312 234 26
158 224 508 247 78 233 26 235 341 208 202 220 270
70 247 412 244 299 234 341 220 230
199 248 244 231 257 242 223 212 146 241 97 230 427
89 253 236 256 328 243 446 227 144 221 276 244 401 247 13
149 245 131 229 139 239 27 240 252 218 269
122 245 165 229 475 246 158 240 328 238 27
280 245 58 231 122 239 328 238 252 218 9 242 281 246 61 249 401
102 250 628 248 23 236 97 232 402 230 34 223 190
354 248 299 231 286 236 223 240 281 251 128 249 196
367 237 446 256 220 227 327 259 440 246 396
101 237 401 247 165 221 326 235 299 220 147
419 240 58 239 165 238 131
146 243 396 229 188 239 158 227 53 240 61 259 165 258 354 249 180 262 209
403 253 408 237 13 255 250 233 312 244 165 235 412 234 78
27 250 362 251 193 242 299 252 139 236 244 241 23
220 240 401 251 312 242 196 258 365 246 180 254 300
32 248 362 241 628 252 592
38 248 193 252 340 254 250 242 128 249 312
38 250 592 248 139 251 340 254 453
229 247 408 237 236 256 202 257 412 255 120
86 252 453 251 250 258 527 249 300 281 384 273 264
179 260 367 253 120 233 237 261 3 257 135 247 250
455 253 202 237 328 243 220 257 289 259 73 265 110 263 400 268 27
160 253 412 255 135 261 408 256 289 268 135
255 249 365 246 354 264 277 262 164 254 527 270 117 273 161
313 243 440 256 73 246 165 262 318 267 202 263 31
105 266 314 255 367 261 249
85 266 166 260 249 255 3 257 408 276 151 268 7 278 142 277 264
199 259 318 258 164 246 209 267 47 272 187 264 235
481 259 31 265 363 256 400 267 461 275 95
706 258 277 262 235 269 25 270 237 271 132 272 104
61 268 494 275 270 263 363 256 110
167 276 302 260 314 261 166
42 259 202 262 47 263 461 274 95 275 200 272 412
120 257 135 265 494 256 27 261 7 277 452 282 89 275 9 279 45
633 273 199 270 154 272 204 271 36 264 25
475 258 117 269 154 271 103 264 237 273 322
229 269 36 270 103 264 132
170 262 187 269 204 264 104 274 68 273 140 267 412
222 258 161 254 264 269 199 270 322 274 359 281 694 272 140
162 295 123 294 286 293 33 287 257 273 359 281 7 275 148 267 95 272 68
105 265 270 263 95 268 9 274 148 287 329 282 178 267 200
127 266 302 280 383 261 151 278 296
290 261 264 268 452 278 287 279 174
140 276 296 280 11 261 142 277 287 285 265 279 107 284 9
373 277 174 268 45 282 80 278 107 284 150 289 11 283 125 286 42
114 290 480 276 383 285 268 278 11
99 301 968 254 384 299 263 274 7 294 411 273 694
692 292 233 268 89 287 123 275 178 291 103 279 80 283 205
391 282 205 291 38 289 78 288 26 279 125
814 278 9 285 206 291 113 279 150 288 76 286 7
537 296 105 290 75 297 128 280 268 278 265 291 237 284 206
287 284 7 289 42 288 45 279 42
117 292 105 274 257 293 258 282 123 275 329
507 291 79 284 76 289 35 283 26 286 45
579 288 35 283 78 286 42 279 11
472 296 615 280 480 285 75
757 297 281 292 356 282 103 285 237 283 38 288 79 284 113
196 297 68 300 200 302 9 298 383 291 356 282 233 293 295 287 105
54 298 269 292 295 274 33 295 275 287 258
54 299 156 274 286 295 291 281 411
161 299 184 298 91 274 123 294 291 293 275
583 290 615 300 26 297 597 285 105
88 296 597 300 786 285 128 291 281 292 68
196 302 624 303 8 299 354 292 383 293 269 295 91
80 303 412 301 228 281 263 298 354 294 156 295 184
68 304 569 296 26 297 786 302 607 292 200
89 303 550 281 968 299 228
492 304 746 300 607 303 367 298 624 292 9
54 304 515 302 367 301 550 298 8 299 412
173 305 1393 300 569 302 746 303 515
339 307 1052 304 1393 306 97
58 307 586 305 97
122 306 586 305 1052
