198 470 11
109 5 44 4 806
143 8 228 7 189 3 25 4 951
191 8 82 2 25 5 803
119 9 108 1 806 2 951
362 6 43 1 44 3 803
169 5 43 14 2783 15 44
77 2 189 12 240 15 409 9 333
51 2 228 3 82
64 4 108 11 271 7 333
69 22 193 16 179 12 70
92 16 290 9 271
76 20 144 10 70 7 240
84 22 224 27 196 28 3
744 17 456 15 271 6 2783
141 14 271 24 195 17 459 19 60 18 419 7 409 6 44
169 10 179 11 290
742 14 456 15 459
1147 32 217 15 419 20 442
848 24 453 15 60 25 471
102 12 144 21 176 18 442
45 20 176 26 165
125 10 193 13 224
140 27 252 33 451
552 15 195 19 453 25 191
250 24 191 19 471 31 560
1079 21 165 36 220 30 234
109 28 56 13 196 23 252
410 27 56 13 3 35 155 36 427
640 31 512 30 145 40 434
857 32 75 29 145 37 230 38 82 40 128 26 234
77 25 560 29 512 40 143
874 18 217 30 75
239 39 422 23 451
729 39 365 82 17 41 33 99 138 95 102 86 140
246 28 155 39 379
510 26 220 43 48 42 346 28 427
1121 50 47 54 211 40 95 30 230 38 521 48 101
649 37 521 30 82 44 344 48 241
181 33 422 34 365 35 379
245 29 434 31 143 37 95 30 128 64 20 50 57 77 13
76 34 33 99 488 126 642
362 43 113 46 227 36 346
1318 47 263 49 37 46 175 36 48 42 113
703 48 388 38 344 45 20 56 367 60 30
1146 44 20 56 210 63 88 55 38 58 103
338 43 175 42 227 52 203
1602 53 178 43 263 49 42
316 37 101 54 427 50 19 44 388 60 501 38 241
67 43 37 47 42
1463 37 47 54 671 40 57 48 19 60 111 79 143 75 112
771 66 53 62 71 58 16 59 58 57 29 52 34
861 51 34 59 107 57 11 46 203
840 69 95 47 178
166 37 211 48 427 50 671
850 45 38 63 126 58 33 67 22 68 123 62 81
1396 44 367 60 171 61 318 63 138 45 210
860 65 110 51 29 52 11 66 90
909 45 103 51 16 55 33 62 58 59 45
628 51 58 58 45 52 107
61 50 111 44 30 48 501 56 171 61 262 81 179 78 199 79 409
1273 56 318 60 262 81 239 63 90 70 205 68 135
1050 51 71 58 58 67 27 66 62 55 81
784 56 138 45 88 61 90 55 126 68 8
238 40 20 103 504 92 364 77 163
836 73 129 57 110 66 46 71 143
726 65 46 51 53 57 90 67 83 71 15 62 62
1245 68 53 72 64 66 83 71 75 55 22 62 27
1198 63 8 61 135 70 167 67 53 55 123 72 12
500 82 239 53 95 83 218
1223 81 106 73 161 76 68 61 205 72 198 68 167
1105 73 109 65 143 67 75 72 110 66 15
1032 73 86 70 198 67 64 68 12 71 110
929 80 324 76 141 70 161 72 86 71 109 65 129
1332 83 233 84 320 80 85
293 50 112 79 160 89 133 77 280 85 121
558 94 367 90 340 83 30 84 461 81 75 73 141 80 169 70 68
451 40 13 64 163 89 151 92 222 75 280
273 60 199 87 434 81 111 79 350 88 129
387 50 143 60 409 78 350 75 160 88 51 85 256
822 84 183 73 324 76 169 74 85
627 60 179 87 416 78 111 90 570 91 14 61 239 76 75 70 106
205 69 239 34 17 86 382
1299 94 6 74 233 84 276 76 30 93 527 69 218
201 83 276 74 320 76 461 80 183
128 79 256 89 45 88 290 75 121
252 82 382 34 140 95 110 97 436
260 81 416 91 457 78 434 88 102
143 87 102 78 129 79 51 89 364 96 4 91 183 85 290
98 96 254 92 386 88 364 77 151 75 133 85 45
216 94 489 81 570 91 78 98 123 76 340
309 87 457 90 78 81 14 88 183 98 276 96 271 102 247
728 64 364 89 386 103 298 107 202 96 76 77 222
813 94 20 105 328 83 527 108 359 104 166 101 257
227 98 285 90 489 76 367 106 102 105 640 93 20 83 6
261 34 102 86 110 97 436 99 53 100 336
483 89 254 92 76 88 4 91 271 111 34 107 476 102 340
394 86 436 95 436
935 94 285 90 123 91 276 109 178 102 220 106 351
259 34 138 41 488 95 53 113 210 100 145
82 95 336 113 302 99 145
440 93 257 104 225 112 89 116 172
261 91 247 111 28 96 340 109 327 98 220 110 7
1069 140 960 64 504 92 298
149 108 66 93 166 115 226 101 225 116 200
1210 117 435 120 75 94 640 108 380 106 49 93 328
513 117 519 125 114 94 102 105 49 122 1 109 30 118 372 98 351
312 92 202 111 335 96 476
1036 120 195 105 380 123 127 93 359 119 417 104 66 115 38
130 102 327 110 297 118 205 98 178 106 30
123 111 355 129 59 122 196 109 297 102 7 118 190
330 96 34 107 335 110 355 129 478 102 28
1024 116 57 101 89 124 251 113 130 121 189 130 5
334 112 130 99 210 100 302
223 126 210
291 108 38 119 300 104 226 116 171
415 119 9 115 171 104 200 127 70 112 57 101 172 124 322
598 120 540 105 435 106 519 125 115
223 122 302 109 205 110 190 106 372
553 123 165 108 417 127 390 115 300 116 9
448 117 540 125 274 138 38 108 195 105 75 123 629
1424 112 189 130 219
274 141 33 125 438 133 248 129 118 106 1 110 196 118 302
1174 120 629 138 280 144 490 108 127 137 43 127 202 119 165
326 127 356 135 124 137 84 112 251 116 322 130 325
529 141 404 117 115 145 45 138 265 122 438 120 274 106 114
585 114 210 41 642 128 2 132 168
268 123 202 119 390 137 515 116 70 124 356
969 126 2 130 65 132 136 131 106
348 133 254 134 383 111 478 122 118 110 59
131 128 65 131 301 135 4 112 5 124 325 121 219
1158 139 327 136 259 128 106 132 380 135 232 130 301
1150 136 136 128 136 126 168 131 380
1232 141 187 142 298 122 248 134 223 129 254
172 140 1 142 180 133 223 129 383
278 143 114 139 441 131 232 137 438 130 4 124 124
928 148 299 158 9 151 370 139 168 132 136 131 259
638 143 278 144 360 123 43 127 515 135 438 124 84
891 125 265 120 38 153 102 152 366 145 621 144 402 123 280
131 143 366 151 356 136 168 135 441 131 327
485 147 879 142 1 134 1 103 960 193 392
558 145 380 125 404 122 33 133 187
87 140 1 150 61 147 130 134 180 133 298
1109 137 278 135 114 139 366 144 54 149 416 156 385 151 60
469 152 230 138 402 143 54 149 383 123 490 137 360
302 141 380 125 45 153 92 146 372 138 621
437 150 211 153 611 155 94 145 372
329 140 879 150 937 167 224 142 130
905 159 378 158 368 136 299
430 157 144 152 377 143 416 144 383 156 287
923 167 311 147 937 155 288 146 211 142 61
1003 158 614 160 212 143 60 156 226 136 370 139 356
345 157 509 153 433 161 84 149 377 144 230 138 366
1310 152 433 161 443 155 224 146 611 138 102 154 101 145 92
1187 166 669 153 101 161 448 155 937
1206 175 880 150 288 167 385 166 93 173 25 179 146 153 224 146 94 154 937
157 157 87 163 282 160 322 143 385 149 287 151 226
311 166 173 164 426 163 225 152 509 161 341 149 144 156 87
671 159 490 148 368 162 152 136 9 151 614 160 222
184 171 412 172 333 148 378 158 490 162 294
416 158 222 165 358 163 153 162 170 156 322 151 212
305 166 195 157 341 153 443 152 84 154 448
442 172 537 159 294 158 152 170 14 165 108 168 464 160 170 174 195
320 157 225 165 167 164 214 156 282 160 153
1321 166 143 169 377 157 426 165 185 163 214 168 43
165 164 185 168 352 163 167 160 358 162 108
188 173 621 178 509 155 93 154 669 161 195 170 25 169 283 164 143 157 173
149 175 590 185 688 150 311 147 224 155 385 196 868
238 170 337 169 297 165 352 164 43 162 464
564 166 283 170 359 164 377 168 297
86 166 25 178 505 174 304 168 337 169 359 162 14
346 180 102 176 219 172 222 159 412
67 171 222 176 490 159 333 162 537 174 55
102 166 621 178 279 182 642 155 25 179 589 191 523
249 176 6 172 55 178 496 170 304 182 179 162 195 181 568 184 194 188 137
831 185 329 179 360 155 880 167 590
322 183 128 171 219 180 308 184 275 174 6 172 490
118 186 285 180 229
212 166 509 173 279 174 496 182 175 170 505
317 175 360 185 683 173 589 195 37 191 460 190 677 155 146
565 183 259 186 26 171 102 176 308 177 229
125 174 568 184 442 188 453
152 173 642 178 175 192 368 174 179 191 337 194 266 188 331
246 187 270 186 229 184 285 176 128 180 259
563 183 285 176 275 187 273 181 442 174 194 188 29
204 175 329 190 388 167 688 179 683
97 183 229 177 285 187 88 180 26
78 183 270 186 88 184 273 189 169 188 287
444 187 287 192 263 182 331 189 454 181 453 174 137 184 29
106 187 169 192 439 188 454 198 220
164 196 458 185 388 195 712 197 462 179 677
139 173 523 182 337 195 738 194 600 179 460
118 194 351 182 368 189 439 188 263
119 197 340 198 792 196 3229 140 392
182 192 351 182 266 195 173 191 600 198 3028
541 194 173 197 660 191 738 190 712 179 37
602 193 3229 197 1203 190 458 167 868
130 193 340 196 1203 198 2286 195 660 190 462
97 193 792 197 2286 189 220 194 3028
