280 787 11
278 6 471
980 9 11 7 129 3 350 4 47
494 7 193 2 350 5 231
889 9 66 7 358 2 47 14 355 15 5 11 20
619 10 216 7 147 3 231 11 188
774 8 524 1 471 12 149
1257 3 193 2 129 4 358 5 147 11 60
779 21 120 6 524 47 292 29 213 12 99
1021 18 271 26 107 24 277 2 11 14 112 4 66
1194 41 129 16 310 11 102 19 111 5 216 30 94 39 78
1017 10 102 7 60 4 20 5 188 19 89 15 97
636 6 149 8 99 37 246 18 268 29 134
1202 20 130 23 86 17 72 14 154 19 20
1233 24 40 9 112 20 75 4 355 17 31 15 42 13 154
1468 4 5 11 97 17 71 19 30 14 42
1432 41 223 10 310 22 419 56 117
1378 15 71 14 31 13 72 19 51
1116 37 107 12 268 9 271 26 217
1243 10 111 23 75 11 89 17 51 15 30 13 20 30 74
1398 24 209 25 58 28 46 23 61 14 75 13 130
176 50 297 8 120 47 371
671 16 419 56 131 61 434
1251 25 40 20 61 27 43 30 14 19 75 13 86
991 26 89 33 6 9 277 34 209 28 69 14 40 20 209
1153 27 55 23 40 20 58 28 43 32 8
1370 37 140 18 217 9 107 24 89 46 177 48 2 40 270 34 66
1260 25 55 23 43 30 52 32 55 36 32
1268 33 41 24 69 25 43 31 34 20 46 32 7
485 8 213 37 343 12 134 47 346 55 335
1241 10 94 23 14 27 52 19 74 35 80 36 42 39 76
953 33 76 28 34 32 65 38 45 36 5
1319 25 8 28 7 27 55 31 65 36 35
1067 38 23 31 76 28 41 24 6 34 98 42 39
1182 26 66 33 98 24 209 46 13 42 30 44 159
883 36 50 38 109 30 80 39 27
1306 27 32 32 35 31 5 35 50 30 42 38 13
1187 18 107 26 140 40 141 12 246 29 343 55 103
1066 33 23 31 45 42 96 35 109 36 13 43 84 49 0 39 24
1525 41 156 10 78 35 27 38 24 30 76 52 28 49 115 51 12
1201 37 141 26 270 55 84 73 203 48 63 59 238
1421 16 223 10 129 39 156 52 127 56 3
1343 33 39 34 30 38 96 43 1 44 131 45 111
1092 42 1 38 84 49 122 45 109 51 39
1230 34 159 42 131 46 231 45 19
1065 42 111 44 19 46 1 43 109 57 64 51 34 53 96
1216 26 177 34 13 48 233 44 231 53 17 45 1
450 21 371 8 292 29 346 55 252
1163 26 2 40 63 54 181 46 233 53 23 59 65
806 38 0 39 115 43 122 51 91
59 21 297
934 39 12 52 90 49 91 43 39 57 1 58 102 45 34
1113 41 127 62 169 56 43 39 28 58 19 51 90
1261 54 72 48 23 46 17 57 76 45 96 60 62 66 8
1129 53 72 60 145 48 181 59 19
1110 37 103 29 335 47 252 95 288 40 84 73 229
950 41 3 16 117 22 131 62 100 91 20 61 218 52 43 72 23
1333 69 55 58 44 51 1 45 64 66 82 53 76
1516 62 9 52 19 57 44 51 102 69 25 65 7 64 32 67 46
1443 92 78 73 63 40 238 54 19 48 65 80 10 75 126 76 102 60 20
1224 54 145 53 62 66 28 75 35 68 153 59 20
1473 22 434 91 227 84 459 56 218
1217 63 19 72 109 56 100 52 169 58 9 64 112
919 62 19 70 54 65 29 64 52 67 5 79 23 85 18 72 91 81 30
1109 62 112 65 75 63 52 58 32
997 64 75 58 7 67 63 63 29
1095 74 46 57 82 53 8 78 67 68 5 60 28 69 68 71 2
1415 70 30 69 56 65 63 58 46 63 5
904 74 102 66 5 75 96 77 49 60 153
1260 57 55 70 73 66 68 58 25 67 56 71 0
1043 79 65 63 54 67 30 69 73 71 14
1032 78 74 70 14 66 2 69 0 83 54 93 36 79 46 87 29 81 20
1205 62 109 91 42 101 3 56 23 103 144 105 41 85 42 63 91 104 9 94 43
713 55 229 95 218 92 201 40 203 59 63
846 78 62 66 46 68 102 77 51 86 6 83 25
982 77 19 68 96 82 52 76 69 59 126 60 35
1088 80 37 75 69 82 108 59 102
863 74 51 89 80 86 74 90 28 75 19 68 49 82 12
1032 74 62 66 67 83 40 71 74
1138 70 65 71 46 63 23 81 70
1057 92 109 98 134 89 89 59 10 76 37 82 96
1218 71 20 79 70 85 64 63 30 87 33
1151 89 75 80 96 75 52 77 12 76 108
1188 74 25 78 40 88 50 86 52 71 54 93 1
1306 102 25 91 123 61 459 110 531 151 121 116 12 101 64
203 63 18 72 42 81 64 94 48 87 51
1348 74 6 88 33 83 52 77 74 90 42
1188 71 29 85 51 81 33 94 21 97 27 93 35 99 24
634 83 50 93 48 100 45 86 33 90 37
1337 98 57 90 96 80 89 77 80 82 75
1337 114 54 98 9 89 96 88 37 100 77 86 42 96 1 77 28
760 84 123 101 220 61 227 56 20 72 42
1091 95 110 139 75 73 201 120 113 98 63 80 109 59 78
1169 88 48 83 1 100 55 71 36 97 82 87 35 96 23
738 85 48 72 43 104 75 87 21 99 59
525 55 288 148 219 73 218 139 76 92 110
1034 114 75 121 58 100 110 90 1 97 3 93 23 109 63
711 87 27 93 82 99 59 106 40 109 14 96 3
1237 114 86 92 63 124 116 90 9 131 16 120 69 80 134 89 57
878 94 59 104 1 97 59 87 24 106 48
1337 88 45 96 110 90 77 93 55
318 102 153 91 220 84 64 103 120 72 3
605 112 86 116 135 84 25 101 153 103 38
887 102 38 112 59 101 120 72 144 108 73 105 17
1221 105 77 72 9 107 54 94 75 106 1 99 1
709 103 17 72 41 108 76 104 77 107 19
860 107 55 111 5 113 73 104 1 97 40 99 48 109 6
930 122 71 105 19 108 12 117 7 111 1 104 54 106 55
519 115 48 112 4 103 73 105 76 117 34 107 12
194 121 23 119 5 133 12 126 39 111 16 113 52 97 14 106 6 96 63
715 84 531 164 621 151 160 173 92
464 122 36 119 51 107 1 109 16 113 44 106 5
474 115 94 102 86 118 5 116 54 108 4 103 59
1106 111 44 109 52 106 73
1500 96 75 90 54 98 86 131 71 121 63 130 39 140 49
975 118 57 117 57 112 94 108 48
553 102 135 112 54 84 12 151 136 118 45 150 118
1301 115 57 118 28 123 64 122 11 108 34 107 7
721 115 57 112 5 116 45 128 84 137 20 123 29 117 28 150 61
880 125 1 122 3 127 44 111 51 109 5 126 32
1015 145 115 139 98 92 113 124 122 98 69 147 2
1154 114 63 96 58 130 34 133 66 109 23
1178 129 38 123 13 125 26 119 3 117 11 111 36 107 71
1204 118 29 128 5 129 68 117 64 122 13
1063 98 116 131 124 120 122 147 29 163 8 160 10
1012 128 22 129 54 138 39 134 7 122 26 119 1 127 34
1046 119 32 133 15 132 24 127 14 109 39 135 20
778 125 34 119 44 132 13 126 14 134 37
1340 143 2 118 84 137 28 146 80 123 5 138 31 125 22 129 9
1054 128 9 125 54 123 68 122 38
689 114 39 152 87 140 41 121 34 149 7 133 61 135 3 144 24
1232 114 71 124 124 98 16 141 51 160 49 140 73
1211 126 24 135 37 127 13 134 7 136 22
977 121 66 130 61 135 65 109 12 126 15
1240 125 7 138 44 132 7 127 37 136 36
614 130 3 144 10 133 65 132 37 126 20 136 34
1179 138 1 144 69 132 22 135 34 134 36
832 169 11 143 87 118 20 128 28 162 10 174 72 150 55
1217 128 31 125 39 142 6 146 26 134 44 144 17 136 1
861 145 148 168 37 148 145 175 72 165 74 95 76 120 98 92 75
1062 114 49 131 73 153 85 152 37 130 41 141 4
1159 156 43 131 51 163 5 160 104 153 27 158 60 140 4
1131 138 6 146 40 144 29 155 5 154 40 149 17
1096 169 29 170 55 128 2 137 87 155 48 146 24
716 130 24 142 29 149 70 138 17 135 10 136 69
1122 139 148 120 115 147 154 165 65
657 143 24 128 80 142 40 155 43 138 26
1030 145 154 165 114 124 29 120 2 163 189
950 168 181 139 145 95 219
1028 161 8 166 26 152 33 130 7 159 60 142 17 154 23 144 70
1041 173 46 151 19 116 118 118 61 162 45 167 70 137 55
1421 84 121 110 160 173 165 116 136 150 19
1270 161 88 153 9 130 87 149 33 158 36 140 37
1489 152 9 158 81 140 85 141 27
1010 159 16 142 40 155 41 149 23
778 170 27 143 48 159 15 142 5 146 43 154 41
1413 197 174 157 150 165 22 188 51 158 22 163 117 141 43
1170 158 33 156 150 171 143 188 23 178 30
1288 157 33 161 12 171 38 156 22 153 81 152 36 141 60
1176 172 76 166 55 170 5 149 60 155 15 154 16
1031 124 10 131 49 163 131 141 104
992 171 60 158 12 152 88 166 95 149 8
878 167 73 174 70 150 45 137 10
1141 165 15 156 117 124 8 147 189 141 5 160 131
1218 110 621 176 587 204 48 194 174 190 36 173 16
1065 197 247 145 65 175 126 156 22 139 74 147 114 163 15
1137 161 95 171 70 172 35 178 11 159 55 149 26 179 42
1034 181 101 182 17 173 33 162 73 174 12 150 70
998 148 181 175 226 139 37
1130 184 60 177 16 170 27 143 29 137 11 182 33 174 37
1036 172 63 169 27 159 5 177 23 143 55 155 27
1017 157 143 161 60 178 38 166 70 158 38
780 159 76 166 35 170 63 177 17 179 66
950 183 13 164 16 110 92 190 138 181 44 180 44 151 165 167 33 150 46
1362 169 37 182 44 162 70 167 12 137 72
842 168 226 165 126 139 72
862 203 579 205 22 164 587 204 152
1153 184 45 172 17 169 16 170 23 186 4 185 26 179 48
1223 157 30 171 38 166 11 188 12 186 4 179 73 191 92 189 65
1242 172 66 166 42 186 64 177 48 178 73
1072 183 103 181 104 187 16 173 44
1620 180 104 173 44 167 101 182 59 187 22
1150 195 50 184 45 169 33 185 59 181 59 187 89 174 44 167 17
898 187 67 190 80 180 103 173 13
1302 177 45 185 39 169 60 182 45
1142 195 58 184 39 186 82 177 26 193 9 192 8 189 7 182 59
192 177 4 185 82 179 64 189 60 178 4
986 198 89 195 74 183 67 190 94 181 22 180 16 182 89
1228 197 169 157 23 156 51 210 52 199 70 178 12 191 96 196 112
1098 186 60 178 65 193 77 191 3 185 7
798 202 79 198 53 183 80 164 36 194 130 187 94 173 138
842 188 96 178 92 193 24 196 36 189 3
1248 195 167 199 55 193 72 196 118 185 8
685 196 24 192 72 189 77 185 9 191 24
851 202 143 164 174 204 182 190 130
1101 198 31 201 78 187 74 200 88 199 29 182 50 185 58 192 167
978 199 21 188 112 193 24 192 118 191 36
848 165 247 214 122 210 164 188 169 156 174
1421 202 133 187 89 190 53 195 31 201 121 207 83
1022 211 137 213 9 210 78 195 29 200 92 188 70 192 55 196 21
1362 201 41 213 9 195 88 212 49 215 79 199 92 206 68
1008 198 121 207 47 195 78 200 41 206 87
1435 204 56 194 143 209 128 190 79 198 133 207 17
895 233 26 176 579 231 275 226 141 205 25
1561 202 56 209 60 205 219 164 48 176 152 194 182
1202 203 25 226 280 228 135 240 27 224 59 209 1 204 219 176 22 227 104
1158 207 36 201 87 212 51 200 68 208 51
1120 202 17 198 83 209 54 208 80 201 47 206 36
979 207 80 209 27 217 91 212 15 206 51 219 29
829 202 128 207 54 224 184 204 60 205 1 208 27 217 34 222 35
544 197 164 214 1 216 260 211 33 213 59 188 52 199 78
772 213 129 210 33 199 137
1261 215 47 200 49 220 56 206 51 208 15 219 24 225 10
1203 216 50 221 112 235 5 211 129 210 59 215 69 200 9 199 9
1089 197 122 230 306 210 1 216 74
1400 221 55 213 69 212 47 200 79 220 30 218 35
1105 230 199 214 74 236 74 210 260 213 50 235 20
1053 209 34 222 48 223 0 208 91 219 62
1124 221 56 215 35 220 80 234 57 229 8 237 47
1244 217 62 223 57 212 24 208 29 225 36
1221 212 56 215 30 218 80 229 6 225 83
1060 215 55 213 112 235 148 218 56 234 8
1353 224 36 209 35 227 76 232 96 217 48 223 64 229 41
950 222 64 217 0 229 31 225 37 219 57
852 209 184 205 59 227 174 222 36
1267 223 37 212 10 220 83 219 36 229 59
1139 244 146 203 141 233 41 231 179 205 280 240 6
1234 228 182 224 174 205 104 232 12 222 76
991 205 135 240 133 227 182 232 62 247 235
959 222 41 223 31 220 6 225 59 218 8 232 41 237 47 239 30
1081 246 161 236 102 214 306 216 199
768 203 275 233 373 226 179
1102 228 62 227 12 222 96 247 67 229 41 242 81 239 95
562 249 35 244 209 203 26 245 197 226 41 231 373
762 221 8 235 87 236 82 218 57 243 31 237 6 238 98
1167 216 20 221 148 236 137 213 5 234 87
305 230 102 216 74 235 137 246 255 234 82 243 32
1094 218 47 229 47 234 6 241 46 239 5 238 66
1134 234 98 241 22 237 66 243 88
901 232 95 229 30 241 78 242 31 237 5
271 250 215 254 149 244 107 226 6 228 133 205 27 252 150 247 64
1336 239 78 237 46 238 22 243 34 242 24
1177 247 15 248 149 232 81 241 24 239 31 243 64
1204 236 32 246 35 248 113 234 31 241 34 238 88 242 64
347 250 190 249 152 240 107 226 146 233 209
483 256 188 249 237 255 109 233 197
1268 230 161 251 227 257 94 236 255 248 114 243 35
1497 228 235 240 64 252 226 253 21 232 67 248 124 242 15
1204 257 0 253 265 246 114 247 124 243 113 242 149
196 250 111 255 174 245 237 233 35 244 152
273 249 111 255 124 254 94 240 215 244 190
1517 246 227 257 275 260 102
1429 261 205 258 64 254 81 240 150 253 162 247 226
1031 259 185 258 146 257 45 252 162 248 265 247 21
587 265 175 262 77 261 175 250 94 255 31 252 81 240 149
187 256 162 262 175 250 124 249 174 245 109 254 31
455 264 344 245 188 255 162 262 158
1089 259 194 251 275 258 43 260 133 246 94 253 45 248 0
401 261 67 259 131 263 226 252 64 253 146 257 43 260 68
1152 257 194 253 185 258 131
1971 251 102 258 68 263 143 272 121 257 133 271 94
283 268 159 265 71 269 58 263 138 254 175 252 205 258 67
837 256 158 264 79 270 161 267 0 265 233 255 175 254 77
1399 261 138 258 226 269 102 260 143 271 249
507 266 370 256 344 270 106 262 79
596 268 125 267 170 261 71 262 233 254 175
536 264 370 270 192
276 268 160 270 53 265 170 269 184 273 257 262 0
186 267 160 265 125 269 192 261 159
1008 268 192 267 184 261 58 263 102 275 446 271 20 273 127
334 266 192 264 106 267 53 273 299 262 161
2321 263 249 274 173 260 94 272 38 275 106 269 20 276 86
849 277 182 274 216 260 121 271 38
709 270 299 267 257 269 127
1365 277 104 278 18 272 216 276 179 271 173
567 271 106 269 446 276 316 279 173
338 278 253 274 179 275 316 271 86 279 43
1019 272 182 274 104 278 314
356 277 314 279 365 274 18 276 253
115 278 365 275 173 276 43 280 456
160 279 456
