139 369 11
463 2 142 5 202 10 142 11 368
115 5 244 1 142
143 4 106 5 156 6 270
237 3 106 8 35 7 361 6 8
398 2 244 3 156 6 174 1 202 11 59
92 3 270 4 8 7 303 5 174 12 13 11 231
177 4 361 14 223 8 26 6 303 12 250
250 9 282 4 35 14 169 7 26 18 271
340 19 159 18 166 8 282
424 1 142 11 157 17 206 16 265
365 6 231 1 368 5 59 10 157 15 307 12 122 16 90
201 14 260 7 250 6 13 11 122 21 48 15 206 13 75
166 14 275 21 66 22 338 18 213 12 75
311 7 223 12 260 8 169 18 104 13 275
229 11 307 21 240 16 281 12 206
152 10 265 11 90 17 60 21 138 15 281 27 57 25 59 41 105 39 170
819 10 206 16 60 39 277 28 43
314 9 166 14 104 8 271 13 213 23 67 22 38 30 53 24 77 19 103 31 224
427 9 159 20 214 24 203 26 203 18 103
585 32 116 19 214 37 129 26 110
342 16 138 25 299 15 240 22 119 13 66 12 48
310 21 119 13 338 29 192 18 38 30 160 25 14
741 31 244 18 67 30 218 40 130 43 38 34 8 35 130
549 33 118 26 214 34 154 19 203 31 173 18 77
392 21 299 16 59 29 186 22 14 27 285
467 20 110 37 202 24 214 19 203 33 24
286 16 57 46 183 41 125 29 72 25 285 44 70 42 184
555 17 43 50 223 39 204 48 117
547 22 192 25 186 30 166 27 72 42 127 35 45
396 23 218 29 166 22 160 18 53 35 237
476 23 244 24 173 18 224 34 115
417 55 198 20 116 37 413
776 37 61 45 31 24 118 26 24 40 49 43 208 34 11 38 86
628 23 8 24 154 31 115 33 11 36 71 40 18 38 86
609 23 130 29 45 30 237 42 79 47 165 51 140 43 73 57 38
732 34 71 40 83 38 27
974 32 413 20 129 55 9 26 202 45 275 33 61
517 33 86 36 27 34 86 40 7
236 17 277 16 170 50 24 41 295 28 204
748 23 130 33 49 43 151 36 83 34 18 38 7
889 16 105 50 199 46 177 27 125 39 295
801 29 127 27 184 35 79 54 102 44 29 47 206
708 45 230 23 38 35 73 33 208 40 151 60 127 57 69 63 22
115 56 165 46 215 27 70 54 224 66 16 42 29
885 58 278 55 76 37 275 60 113 43 230 33 31
208 56 116 50 136 44 215 27 183 41 177 53 5
356 35 165 54 12 42 206 52 208 51 94
399 50 23 28 117 68 228 53 214
697 92 159 82 67 68 16 77 200
122 46 136 41 199 53 270 39 24 28 223 48 23
959 35 140 52 92 47 94 59 128 62 112 57 177
340 54 159 61 136 51 92 62 49 47 208
734 56 260 50 270 46 5 73 69 82 74 68 1 48 214 77 112
745 66 89 44 224 42 102 61 67 52 159 47 12
413 32 198 94 43 88 346 58 173 37 9 70 82 45 76
298 46 116 44 165 53 260 73 135 66 209
1043 35 38 43 69 59 150 51 177 72 32 67 57 65 42 63 192
1005 69 101 60 67 70 166 55 173 45 278
1181 79 33 72 18 57 150 62 104 51 128
871 58 67 45 113 43 127 69 28 67 9 63 198 64 47
192 75 84 54 67 66 193 52 136 62 197
1060 75 149 61 197 52 49 59 104 79 235 51 112
684 43 22 67 108 57 192 60 198
351 69 77 67 89 65 26 60 47 74 54
545 72 113 67 62 57 42 78 34 74 57 64 26
455 56 209 73 107 75 194 54 89 44 16 61 193
863 65 62 57 57 63 108 64 89 60 9
1010 49 16 48 228 77 152 53 1
690 58 101 70 101 60 28 64 77 71 5 74 53
425 88 24 58 166 55 82 85 176 69 101 86 41 71 42
567 85 76 70 42 69 5 84 9 74 22 80 5 81 66 76 41
689 87 37 59 18 79 105 84 30 83 44 65 113 57 32 78 21
432 56 135 75 62 91 189 53 69 66 107 82 295
273 69 53 65 57 64 54 71 22 78 2 76 50
491 96 118 93 27 73 62 91 315 89 63 66 194 79 175 62 149 61 84
473 74 50 80 24 78 10 71 41
590 82 56 68 152 49 200 53 112
607 72 21 65 34 83 19 74 2 80 21 81 9 76 10
1294 89 60 87 286 75 175 59 33 62 235 72 105
437 81 19 78 21 76 24 71 5
943 83 57 84 19 80 19 78 9 71 66
656 73 295 92 290 91 100 53 74 49 67 77 56
678 72 44 84 72 78 19 81 57
1012 89 50 87 176 85 10 86 142 72 30 83 72 71 9 81 19
1116 70 176 86 208 71 76 84 10
954 90 183 88 121 89 20 85 208 70 41 84 142
483 89 225 84 176 72 37 79 286
313 94 337 101 5 90 416 97 18 55 346 86 121 70 24
1181 90 287 93 520 84 50 86 20 75 63 87 225 79 60
722 86 183 89 287 88 416 93 101 97 9
462 96 196 100 173 95 118 73 189 92 28 75 315 82 100
986 95 238 91 28 49 159 82 290
1041 103 321 96 236 90 101 97 251 75 27 89 520
308 102 271 55 43 101 329 88 337
485 99 279 100 25 91 118 92 238
660 103 312 106 55 104 81 93 236 100 394 91 196 75 118
748 108 229 107 222 103 50 101 329 90 9 93 251 88 18
574 104 411 100 75 105 214
358 100 105 105 256 95 279
292 104 41 96 394 99 105 98 75 105 254 91 173 95 25
565 110 378 102 265 107 23 94 329 97 329 88 5
501 94 271 101 265
759 111 114 108 85 109 191 106 289 97 50 93 321 96 312
1064 113 273 106 328 98 411 96 81 100 41
148 99 256 100 254 98 214
698 111 161 115 180 113 261 103 289 104 328 114 48 96 55
273 110 352 111 68 117 142 108 38 109 276 101 23 97 222
1016 109 165 107 38 97 229 103 85
583 111 273 108 165 103 191 107 276
498 116 464 117 12 107 352 101 378
532 106 161 103 114 109 273 107 68 117 96 115 360
745 138 570 139 312
628 104 273 106 261 114 36 118 608
459 115 190 113 36 106 48 125 158 119 249 118 321
204 111 360 117 110 106 180 114 190 119 144
250 110 464 117 227 123 336 124 83
212 110 12 111 96 107 142 116 227 123 139 115 110 121 52 126 207 119 253
544 113 608 125 566 114 321
539 117 253 115 144 125 160 126 174 114 249
655 131 222 132 142 125 569 122 221 135 446
562 117 52 130 194 122 80 126 308 129 17 123 153 128 183
569 132 182 130 148 125 189 120 221 121 80 126 117
647 117 139 116 336 121 153 127 85 124 159 128 80
612 116 83 129 162 127 89 123 159 128 148
390 119 160 114 158 122 189 120 569 126 167 118 566
240 117 207 125 167 119 174 122 117 121 308
488 124 89 123 85 128 98
626 129 139 121 183 127 98 124 148 123 80
641 131 158 130 246 133 205 121 17 124 162 128 139
428 131 31 132 139 122 148 121 194 129 246
190 135 211 120 222 133 248 132 154 129 158 130 31
639 131 154 122 182 120 142 130 139
324 131 248 135 257 137 65 129 205
684 138 720 136 805
236 131 211 136 103 137 681 133 257 120 446
542 135 103 137 690 134 805
570 136 690 135 681 133 65
578 139 328 112 570 134 720
745 138 328 112 312
