264 724 11
125 4 1252 5 901
127 47 169
145 43 248 27 242 58 34 55 115 46 206
293 1 1252 16 309 5 593 7 326
62 1 901 4 593 6 790 7 542
226 7 54 5 790 10 515 9 503
201 4 326 16 188 6 54 5 542 22 329 18 633 10 58 17 308
378 24 172 28 646 49 26
362 24 327 6 503 12 68 10 370 14 177
888 6 515 7 58 9 370 17 243 14 182 13 373 15 24
329 12 129 21 402 23 388 20 34
112 33 443 24 430 30 562 9 68 21 76 11 129 14 357 23 20
1341 10 373 19 103 15 210 14 170
932 9 177 10 182 12 357 19 69 13 170 23 388
762 17 337 10 24 21 114 19 14 13 210 20 75
103 4 309 31 572 7 188 18 691 29 177
1079 22 236 7 308 25 185 10 243 21 44 15 337
463 16 691 34 257 29 225 22 261 7 633 26 41
564 15 14 13 103 20 58 14 69 23 10
699 21 51 11 34 19 58 15 75 23 25
900 25 462 30 127 17 44 12 76 11 402 15 114 20 51
246 17 236 7 329 25 232 18 261 26 60
464 12 20 11 388 19 10 20 25 14 388
38 33 367 9 327 8 172 12 430 28 369
268 36 13 22 232 26 644 30 46 17 185 21 462
778 40 164 36 366 34 172 32 242 22 60 18 41 25 644
96 45 26 44 193 3 242 46 23
299 33 445 24 369 49 630 8 646 39 173 59 74 62 20
47 16 177 37 308 31 222 34 362 38 17 18 225
46 33 209 54 58 60 373 39 214 36 481 25 46 12 562 21 127
29 16 572 41 93 37 382 35 470 29 222
153 40 215 34 312 38 189 26 242
260 28 445 39 441 30 209 12 443 24 367
939 29 362 18 257 26 172 32 312 38 120
230 80 448 41 1069 31 470 63 1183 51 268
309 54 422 40 290 52 128 30 481 25 13 26 366
121 41 424 29 308 31 382 38 190
132 41 360 37 190 40 369 51 177 34 120 29 17 32 189
221 33 441 28 173 66 248 60 189 59 558 30 214
295 38 369 32 215 26 164 36 290 52 246 51 124
99 38 360 37 424 31 93 35 1069 51 844
68 45 114 48 76
784 53 258 3 248 55 345
132 45 200 50 128 48 3 27 193 46 188
96 42 114 48 130 44 200 27 26
76 44 188 27 23 58 328 3 206 50 264
87 67 309 2 169
327 45 130 42 76 44 3 56 32 50 159
51 28 630 8 26 62 515 61 182
193 44 128 58 218 46 264 56 242 48 159 65 180
182 91 929 80 613 60 79 41 844 35 268 40 124 52 769 38 177
136 54 592 60 133 40 246 36 128 51 769
70 43 258 69 58 57 379 55 77
232 52 592 36 422 60 597 30 58
102 53 77 43 345 57 290 58 422 64 35 3 115
164 50 242 48 32 65 270
75 53 379 82 158 69 110 55 290 64 327 78 186
109 64 359 55 422 3 34 46 328 50 218 72 72 65 50
268 28 74 66 232 74 222 39 558 68 181 62 404
110 91 256 54 597 66 545 71 220 51 79 52 133 30 373 39 189
145 49 182 70 204 62 170 69 172
33 28 20 49 515 59 404 70 272 61 170 68 366
438 211 835 225 136 80 339 210 343 35 1183 192 380 179 83 208 113
45 88 203 84 46 57 327 78 300 58 359 72 296 55 35
212 75 242 58 50 72 137 56 270 50 180
754 71 329 74 266 60 545 59 232 39 248
44 47 309 73 328
214 81 278 74 236 59 181 90 45 93 79 70 183 79 103 62 366
83 53 58 85 125 70 218 61 172 79 136 82 312 57 110 86 177
236 69 218 61 204 79 404 62 272 68 183
139 91 539 96 460 81 57 66 329 60 220 74 330
122 92 326 77 135 88 115 75 386 58 72 64 296 65 137
40 67 328 76 360
155 81 321 66 266 71 330 59 222 68 236
359 77 0 72 386 65 242
287 87 56 77 323 73 360
145 87 373 92 275 76 323 72 135 75 0
42 84 278 82 127 57 186 64 300 83 258
213 90 373 85 151 70 404 69 136 68 103
381 200 978 91 211 203 514 193 496 207 200 63 339 35 448 51 613 179 512
243 96 66 93 241 68 278 74 321 71 57 95 256
100 57 158 69 312 86 195 78 127 83 155 89 65
48 84 225 94 73 82 155 78 258 89 282
103 88 455 94 224 64 46 78 278 83 225
201 90 196 109 94 97 237 79 151 69 125 86 169 89 137 99 91
64 85 169 82 195 69 177 89 253
48 76 56 77 373 92 133 102 120
106 112 225 92 332 117 99 104 149 94 19 72 115 84 455 64 203
95 85 137 105 287 99 36 94 19 82 65 86 253 83 282
348 93 9 68 45 97 104 85 196 98 63 100 362 79 373
162 200 732 80 211 51 929 107 444 96 118 124 462 60 256 71 539
29 87 133 77 275 102 82 104 359 88 332 72 326
140 81 241 95 156 90 9 101 175 103 60 100 219 68 79
110 112 283 110 138 122 210 105 128 88 19 84 224 89 19 83 73
218 96 237 81 256 107 32 93 156 108 117 103 203
41 91 118 107 456 71 460 81 66 95 237
149 90 104 109 154 85 237 98 136 115 37 111 166
60 90 63 100 164 106 199 97 136 111 131 118 63 121 71
147 109 316 85 91 110 21 105 289 128 51 89 36 125 57 142 149
160 90 362 101 192 106 46 98 164 93 219
110 103 137 106 93 100 192 93 175
418 132 174 87 120 92 82 104 78 126 149 116 78
107 95 203 108 123 101 137 93 60 106 82 123 220
248 92 359 102 78 117 63 88 149 114 199 116 191 113 32
173 110 296 94 128 89 287 99 289
438 101 93 103 82 100 46 127 185 123 82 98 199 118 13
136 91 444 96 456 95 32 120 269 108 447 124 18
110 95 117 120 404 107 447 103 123 123 183
178 97 154 85 94 115 95 125 130 99 316
332 94 138 122 148 105 296 128 110 99 21
109 97 166 98 131 115 167 121 71
352 143 37 131 105 122 116 94 283 88 225 117 402
806 126 170 130 72 117 247 114 224 116 31 104 32
192 116 32 104 199 113 224
580 109 95 97 37 111 167 125 115 121 14 135 103
129 102 78 126 125 114 32 104 191 113 31
380 143 62 112 402 150 95 148 177 130 73 88 99 104 63 113 247
301 119 15 127 319 106 13 146 68 138 168 98 63 121 65 141 62 139 20 136 30
618 161 150 137 121 146 322 118 15 138 285
115 140 291 158 509 108 404 107 269 123 28 124 165
311 111 71 98 71 115 14 135 88 133 38 129 13 118 65 136 66
283 112 116 110 148 131 188 144 15 128 263 94 210
151 120 28 108 183 103 220 127 259 106 82 140 209
193 200 773 216 34 209 474 91 462 201 42 120 165 158 427 107 18 219 191
504 109 130 99 57 142 196 115 115 137 222 135 28
312 132 80 102 149 130 187 116 125 113 170
272 106 185 123 259 118 319 140 78 146 11
287 110 110 122 263 144 195 99 51 142 209 147 90
560 135 76 137 40 133 25 121 13 134 52
158 132 167 150 15 152 243 126 187 117 73 113 72
80 143 216 112 105 122 188 144 164 157 63 154 88 149 56
240 130 167 126 80 102 174
474 129 25 121 38 136 52 134 36
498 137 116 133 36 129 52 141 19 139 110 136 4
378 115 103 125 28 121 88 137 51 129 76
459 133 52 121 66 141 93 118 30 134 4
423 161 52 166 72 119 121 138 0 151 28 142 74 125 222 135 51 139 13 129 40 134 116
774 119 285 137 0 118 168 139 185
732 138 185 137 13 141 79 118 20 134 110
152 168 167 163 217 120 291 158 49 127 78 123 209 146 184
626 139 79 118 62 136 93 134 19
623 128 209 99 149 147 204 151 59 125 196 137 74 145 56
123 148 152 149 125 131 216 112 37 117 62
1343 122 15 128 195 155 213 131 164 154 108 147 84
787 147 161 151 143 142 56 160 95 159 24 164 26
228 168 245 177 91 161 98 119 322 127 11 140 184 118 68
1223 128 90 155 3 144 84 142 204 159 118 145 161
149 143 152 150 177 153 125 149 150 156 116 117 177
221 143 125 148 150 157 161 156 14 131 56
87 153 190 148 177 117 95 152 268 130 15
804 165 111 166 154 169 31 164 105 137 28 142 59 145 143
225 150 268 153 192 130 243
171 150 190 148 125 156 264 152 192
419 155 169 167 41 144 108 199 213 157 282 174 14 131 88
531 154 169 167 165 144 213 159 165 147 3
179 153 264 148 116 157 162 174 376 149 14
376 174 104 156 162 154 282 149 161 131 63
120 197 133 163 385 201 49 120 509 124 427 140 49
302 155 165 167 86 147 118 160 81 162 36 145 24
326 162 33 159 81 145 95 164 79
670 186 129 177 115 119 150 137 52 146 98 180 29 166 276
783 167 14 169 45 160 33 159 36 164 84 173 105 176 22 178 6
248 168 112 197 296 185 140 140 217 158 385
554 151 105 169 19 160 79 145 26 162 84
1048 166 171 172 102 171 12 169 34 151 111
1795 161 276 165 171 180 86 137 72 172 1 151 154
269 189 78 191 153 155 165 199 24 154 41 175 33 173 93 162 14 159 86
452 163 112 185 180 170 86 177 303 146 245 140 167
518 165 34 151 31 162 45 164 19 171 63 176 30
173 168 86 218 178 185 223 196 174 212 212 177 83
189 165 12 169 63 172 59 176 35
1029 165 102 166 1 183 83 180 34 171 59 187 40 176 5
279 167 93 162 105 175 71 178 13
244 199 286 202 368 157 104 154 14 156 376
336 189 38 167 33 173 71 182 28 178 58
541 169 30 171 35 172 5 162 22 187 28 181 21 178 49 188 4
593 168 303 170 83 186 118 196 200 146 91 161 115
417 162 6 173 13 175 58 181 49 176 49 182 9
458 203 527 80 512 192 941 63 83 205 74
460 186 194 198 94 161 29 166 86 183 139 194 56 172 34
344 178 49 176 21 188 53 182 9 184 9
319 189 116 175 28 181 9 178 9 184 113
456 180 139 194 21 190 138 187 41 172 83
766 189 50 195 21 194 34 190 121 181 9 188 38 182 113
201 168 180 197 341 163 140 218 174 214 2 170 223
286 177 118 161 129 180 194 196 172 198 15
1173 183 41 172 40 190 27 176 28 188 16
122 187 16 190 45 181 53 176 4 184 38
400 184 50 195 7 191 201 182 116 167 78 175 38
213 183 138 194 110 187 27 184 121 188 45
341 204 167 189 201 195 178 199 69 167 153
596 179 941 63 380 208 847 205 14
336 228 519 203 245 80 496 207 176 210 104 205 167
408 198 178 213 175 215 72 195 103 183 21 180 56 184 34 190 110
215 213 109 204 202 206 163 189 7 184 21 194 103 191 178
320 170 174 212 95 186 172 177 200 198 298
86 163 296 185 341 214 64 201 462 158 133
441 212 47 186 15 196 298 180 94 194 178 215 265
226 204 561 191 69 167 24 154 213 202 320 174 286
225 80 978 207 507 219 360 91 732 124 773
256 209 574 197 462 158 49 124 42 214 380
578 221 444 217 281 226 28 204 128 206 25 199 320 174 368
428 193 245 205 37 179 527 80 514
689 191 167 195 202 199 561 206 417 202 128
112 203 37 193 167 210 132 192 14 179 74 208 113
42 227 219 226 92 213 138 223 263 222 148 204 417 202 25 195 163
81 200 507 228 123 193 176 80 200 235 571 219 557 237 626
534 210 908 192 847 63 113 205 113
299 216 719 229 2 214 197 124 474 201 574
223 232 743 225 501 228 125 193 104 63 343 205 132 208 908
435 63 835 225 177 231 750
770 240 66 230 198 218 308 214 28 170 212 224 199 196 95 215 202 198 47
168 206 138 222 154 215 1 194 175 195 109
718 229 122 209 197 230 291 197 64 201 380 218 358 242 194 212 28 185 2
1076 212 202 198 265 213 1 220 329 224 16 194 72 222 71
221 124 34 219 486 233 305 229 336 209 719
511 221 248 202 281
162 212 308 214 358 170 178 185 174
78 200 360 216 486 124 191 235 108 233 406 207 557
377 215 329 224 78 223 250 222 161
347 217 248 202 444 226 578
135 213 154 220 161 215 71 223 108 206 148
32 227 278 234 175 220 250 224 261 206 263 222 108
200 240 439 234 337 212 199 220 78 215 16 245 10 223 261 241 18
80 211 177 238 1277 231 189 236 869 232 460 63 136 210 501
279 221 578 227 614 244 647 202 28 247 71 206 92
263 234 100 243 226 246 18 223 278 244 18 226 614 206 219
281 236 32 232 544 237 843 207 123 193 519 210 125
227 216 336 242 568 214 122 250 221 233 95 209 2 249 384
176 240 561 242 528 214 291 212 198 245 54
295 211 750 238 733 239 195 225 189
248 236 673 225 460 228 544 210 743
212 216 305 229 95 249 324 235 411 248 223 219 406
28 227 100 243 329 223 175 224 337 241 127
135 248 172 233 411 255 859 219 108 207 571 237 237 252 27
139 238 26 239 329 254 1363 237 136 225 869 228 32 232 673
189 236 136 254 320 228 843 258 465 235 237 207 626 252 46
665 236 26 239 659 225 1277 231 733
539 238 659 231 195 254 18 236 329
101 230 561 212 66 224 439 245 317
91 243 145 234 127 224 18 251 180 246 172 245 339
72 229 568 230 528 214 194 250 380 251 87 245 430
155 227 226 234 329 246 208 241 145
141 227 18 226 647 247 576 253 52 246 251
142 240 317 230 54 224 10 251 549 241 339 242 430
117 227 18 244 251 243 208 251 78 253 227 241 172
54 244 576 226 71 257 111 259 521 253 142
269 249 312 250 794 235 172 233 223 255 640
852 229 384 250 132 233 324 248 312
369 229 221 249 132 242 380 248 794
215 253 162 246 78 241 180 256 550 245 549 261 283 242 87
137 258 756 263 734 235 27 255 984 237 46
52 244 52 257 234 247 142 251 162 246 227 256 60
329 239 18 236 1363 237 320 258 809
172 263 277 235 859 248 640 252 984
138 262 519 257 254 260 161 251 550 253 60 261 210
63 253 234 256 254 260 14 259 208 247 111
323 254 809 237 465 252 756
105 257 208 260 653 247 521
366 262 322 257 14 256 161 259 653
176 262 585 251 283 256 210
312 264 195 261 585 260 322 256 519
260 252 734 255 277
129 262 195
