280 776 11
194 3 22 277 36
106 277 23 5 9 7 6 10 13 25 31 32 12
128 1 22 5 38 8 13 277 16
566 19 115 24 114 221 6 231 17 279 28 280 20
125 3 38 277 6 2 9 7 20 8 24
168 32 1 13 57 14 47 31 47 230 2 278 22
113 2 6 5 20 8 2 10 2 11 20
125 3 13 5 24 7 2 11 24 12 24 227 27
572 15 1 26 19 33 17 222 32 224 11 226 24 276 62
53 2 13 7 2 11 13 12 44 13 11 32 44
344 7 20 10 13 8 24 12 24
419 10 44 8 24 13 54 11 24 225 1 227 10
540 10 11 32 12 6 57 12 54 225 37 230 51
59 6 47 228 67 230 9 278 42
224 9 1 16 8 220 18 222 6 276 16
58 15 8 276 34 220 4 223 42 229 5
385 19 116 21 274 43 397 135 19 171 13 198 57 240 2
212 240 4 36 15 41 16 53 2
579 4 115 17 116 21 177 22 94 24 18 29 6 44 32 240 304 279 37
78 26 11 23 43 28 5 38 14 45 36
32 19 177 24 99 17 274 177 21 198 46 211 10 219 2 234 51
466 19 94 240 98 41 23 44 21
353 29 50 20 43 28 20 38 24 49 1
529 4 114 19 18 21 99 209 8 231 42 233 12 234 28
184 277 14 2 31 32 54 39 4
257 9 19 20 11 28 31 33 50 40 36 45 55 276 9
231 31 14 278 48 46 54
243 279 11 26 31 33 35 29 19 20 5 23 20
122 19 6 279 27 23 50 28 19 44 68 49 5
15 32 12 31 61 46 40 42 60
104 32 39 6 47 27 14 30 61 46 1 278 30
213 2 12 10 44 25 54 6 1 13 12 30 12 31 39 39 28 42 15
31 221 20 279 32 280 40 9 17 26 50 28 35 226 7
15 46 30 37 48 47 39
20 39 45 37 24 47 31 48 43
685 18 15 41 24 44 9 49 37 51 4 53 4 239 52
107 39 25 46 5 42 21 34 48 35 24 47 15
335 20 14 23 24 45 52 49 96
154 25 4 32 28 35 45 37 25 42 60
481 26 36 276 59 45 30
309 240 1 18 16 36 24 22 23 44 36
188 32 15 39 60 46 13 30 60 37 21
298 17 397 106 83 135 53 170 5 238 549 240 220
658 19 32 36 9 41 36 22 21 29 68 49 24
71 26 55 20 36 38 52 40 30
83 31 1 27 54 30 40 34 30 37 5 42 13
16 34 39 37 15 35 31 48 4 50 27
21 47 4 35 43 50 32
52 36 37 29 5 44 24 23 1 38 96 51 13 52 93
60 47 27 48 32
902 36 4 49 13 52 42 54 13 55 49 236 168 239 159
222 49 93 51 42 55 77
539 240 769 18 2 36 4 239 766
244 51 13 55 40 236 71 237 45
267 51 49 52 77 54 40
636 57 3 58 1 59 5 94 1 101 5 102 6
658 56 3 58 1 59 6 60 6 64 5 93 3
573 56 1 57 1 62 8 64 2 97 1 102 11 104 10
733 56 5 57 6 93 8 94 1
277 57 6 64 3 66 11 69 2 70 1 71 15 85 21 93 5
529 66 1 85 46 83 46 84 25 130 8 256 9
759 58 8 64 3 68 5 69 1 70 3 73 5 104 1
764 104 19 65 1 80 7 98 5 100 10 255 2 258 12 266 22 267 37 269 25
644 57 5 58 2 60 3 62 3 70 4
914 104 19 63 1 251 10 258 24 259 4
491 60 11 61 1 71 14 85 8 252 6 256 13 257 3 262 21 264 5 265 1 270 16
62 78 79 90 23 115 77 268 15 273 31
1049 62 5 104 3 72 3 73 5 251 10
638 60 2 62 1 70 4 71 3 73 2 74 2
736 60 1 64 4 62 3 69 4
622 60 15 66 14 69 3 74 7 252 1
636 68 3 73 2 251 1 252 6 74 5
897 62 5 69 2 68 5 72 2 74 1
442 69 2 71 7 73 1 252 1 72 5
291 83 61 84 18 130 9 95 29 118 64 131 14 136 8
634 81 1 82 4 128 1 129 4
264 115 283 111 315 248 40 249 28
218 238 104 67 79 90 23 115 50 123 42
807 81 8 129 3 86 7 87 2 88 1
610 104 34 63 7 98 63 100 6 121 9 122 20 124 20 126 15
650 85 8 130 15 76 1 79 8 82 7 88 11 129 1
692 130 7 76 4 81 7 128 1
619 61 46 75 61 84 25 130 18
755 61 25 83 25 75 18 95 38 254 1 256 86
514 60 21 93 7 66 8 61 46 81 8 88 13 91 3 96 1 99 3 130 17
928 129 10 79 7 87 2 92 9 126 11
637 79 2 86 2 88 6 91 2 92 4
925 85 13 81 11 79 1 87 6 91 6
956 94 2 91 8 99 6 92 2 103 2
113 67 23 78 23 95 40 110 16 123 45 131 1 254 39 268 32
700 85 3 87 2 88 6 89 8 92 1 99 1
589 94 7 86 9 87 4 126 4 91 1 89 2
385 57 3 59 8 94 1 60 5 85 7 96 11
931 56 1 59 1 89 2 92 7 93 1 96 4 97 6 101 4 103 2 126 5
685 84 38 90 40 75 29 131 68 254 53
490 94 4 93 11 85 1 99 5 103 4
502 58 1 94 6 101 10 102 2 104 20 126 23
1026 63 5 80 63 100 64
988 85 3 91 1 96 5 89 6 103 2
800 63 10 80 6 98 64 121 70 267 19
470 56 5 94 4 97 10 102 5
1044 56 6 58 11 101 5 97 2
678 94 2 96 4 99 2 89 2
902 58 10 62 1 97 20 63 19 65 19 68 3 80 34 126 5 251 4
175 121 48 125 34 143 24 146 16 151 63 152 15
372 43 83 135 32 112 35 170 85
617 108 13 144 3 145 6 147 14 148 17
109 107 13 145 24 148 26 149 41
497 110 3 113 3 117 4 119 5 120 7
650 90 16 131 19 123 35 109 3 113 2 114 42 117 28 120 5
511 238 36 115 352 77 315 241 463 244 2 246 75 247 34 249 111
541 135 4 106 35 170 5 114 33 116 11 139 19
676 110 2 109 3 117 4
656 118 5 131 3 110 42 112 33 119 2 120 11 116 1 139 44
214 238 563 67 77 78 50 77 283 111 352 248 44 273 12
560 170 6 112 11 119 11 114 1
656 170 33 238 2 123 32 110 28 109 4 113 4 119 6
239 75 64 114 5 131 54 133 15 136 20 139 94
516 170 7 109 5 117 6 114 2 116 11 120 3
587 110 5 109 7 119 3 114 11
923 80 9 100 70 105 48 122 1 125 24 149 10 151 1
486 80 20 136 1 121 1 124 52 149 63
626 238 51 78 42 90 45 110 35 117 32
708 80 20 136 7 122 52 126 31 127 20
106 121 24 105 34 152 65
603 94 5 97 23 104 5 80 15 128 3 129 2 86 11 124 31 92 4 127 3
897 130 25 136 35 128 20 124 20 126 3
1074 130 5 76 1 82 1 126 3 127 20 129 14
653 76 4 81 1 128 14 79 3 86 10 126 2
678 85 17 61 8 83 18 75 9 81 15 82 7 127 25 128 5 136 32
764 90 1 75 14 95 68 118 54 110 19 114 3
761 146 14 148 34 137 55 157 48 168 32 174 14 176 3
557 171 2 118 15 136 60 139 57 138 51 173 55
414 140 37 172 41 175 34
559 17 19 43 53 106 32 112 4 139 20 171 61
774 130 32 75 8 118 20 122 1 124 7 127 35 133 60 138 4 145 46 149 16
407 144 18 148 3 132 55 138 6 141 37 168 10
515 136 4 145 2 133 51 137 6 168 40 141 15 173 20
333 135 20 171 54 118 94 112 19 114 44 133 57
982 143 10 134 37 142 48 175 14
1069 144 13 145 15 147 36 137 37 138 15
612 143 39 152 26 140 48
484 105 24 140 10 142 39 146 27 152 43 175 36 176 23
855 107 3 137 18 141 13 147 3 148 3
804 136 46 107 6 108 24 138 2 141 15 147 29 149 8
362 105 16 143 27 132 14 148 6 150 35 151 22 176 66
640 107 14 144 3 145 29 141 36
709 146 6 151 1 107 17 108 26 144 3 132 34 137 3 149 9 150 62
479 136 16 121 10 122 63 151 12 108 41 145 8 148 9
441 146 35 151 50 148 62
401 121 1 105 63 146 22 148 1 149 12 150 50
293 105 15 125 65 143 43 142 26
371 171 25 198 15 156 20 159 15 164 59 201 30 203 3
871 155 14 163 56 166 3 184 10 197 9 202 24 212 6 215 18
798 174 10 176 48 172 42 175 13 154 14 161 44 163 8 212 21 216 5
561 153 20 159 35 194 42 201 25 208 7
474 132 48 160 33 161 9 162 29 168 13 174 64 189 13
411 185 41
542 153 15 156 35 164 20 165 11 167 14 169 30 208 16
143 157 33 168 25 208 21 162 40 165 22 169 25
229 157 9 174 50 155 44 216 64
412 157 29 208 5 160 40 189 46
207 172 44 154 56 155 8 166 26
715 171 14 173 8 153 59 159 20 167 49
673 168 24 159 11 160 22 167 19 169 31
231 172 25 154 3 163 26 185 39 197 18
396 168 32 173 49 159 14 164 49 165 19
517 132 32 137 10 157 13 138 40 160 25 165 24 167 32 173 14
923 159 30 208 21 160 25 165 31
407 43 5 106 85 112 5 116 6 117 33 119 7 238 68
300 17 13 135 61 133 2 139 54 153 25 164 14 173 29 198 52
334 134 41 155 42 163 44 166 25 175 14
701 171 29 133 55 168 14 138 20 164 8 167 49
435 132 14 157 64 155 10 161 50 176 65
710 143 36 176 11 134 34 140 14 172 14 155 13
895 143 23 146 66 132 3 174 65 155 48 175 11
870 21 21 198 26 178 20 180 7 203 34 219 24
512 177 20 203 12 179 11 180 2 191 3 195 3 207 12
639 233 4 178 11 190 27 191 8 196 1 200 1 207 15
896 177 7 219 2 178 2 207 7 213 5
626 184 16 192 4 214 21 217 7
625 192 1 217 1 183 5 186 1 188 1 193 4 199 1
811 217 3 182 5 186 1 218 4
589 154 10 181 16 192 7 197 22 202 24 214 1
578 166 39 197 9 158 41 187 12 188 15 235 26
763 182 1 183 1 187 17 188 16 218 1
430 185 12 186 17 188 8 218 38 235 39
542 197 20 185 15 182 1 186 16 187 8 199 7
333 229 19 157 13 208 31 162 46
564 233 13 194 40 179 27 200 3 204 32
627 178 3 179 8 195 7 196 1
449 184 7 197 4 181 4 182 1 193 4 217 2
468 197 1 192 4 182 4 199 3
712 156 42 201 2 203 1 190 40 195 1 196 2 200 1 204 1 208 1
593 203 9 194 1 178 3 191 7 196 3
218 194 2 179 1 191 1 195 3 200 3
658 154 9 166 18 184 22 185 9 188 20 192 4 193 1 199 5
138 17 57 21 46 171 52 153 15 177 26 203 2
464 197 5 182 1 188 7 193 3
565 194 1 179 1 190 3 196 3
322 153 30 156 25 194 2 203 48
716 154 24 184 24 214 5 215 35
340 198 2 177 34 153 3 201 48 178 12 194 1 195 9
265 226 46 229 14 233 4 194 1 208 43 190 32 232 49
172 230 36 228 45 235 43
707 230 22 225 25 212 11 215 1 214 38 210 23
735 209 11 233 16 178 12 180 7 179 15 213 11
426 229 39 156 7 159 16 194 1 160 21 162 5 169 21 189 31 204 43
585 24 8 211 5 219 3 234 37 207 11 213 7 233 34
430 227 6 225 27 212 21 206 23
556 21 10 209 5 219 28 234 22
427 227 30 154 6 155 21 206 11 210 21 215 50 216 26
668 219 10 209 7 180 5 207 11
473 230 18 184 1 202 5 215 7 181 21 206 38 217 17 218 11
795 154 18 202 35 212 50 206 1 214 7
538 227 59 155 5 212 26 161 64
560 181 7 192 2 214 17 182 1 183 3 218 20
949 230 16 214 11 217 20 183 4 186 1 187 38 235 1
324 21 2 177 24 211 28 180 2 209 3 213 10
108 15 18 222 2 224 3 16 4 223 19
619 4 6 33 20 226 33 231 31 232 40 280 60
83 9 32 15 6 220 2 224 28
331 224 37 16 42 220 19 229 21
670 9 11 222 28 220 3 223 37 226 49 229 21
426 13 37 230 14 12 1 227 52 206 25 210 27
341 221 33 9 24 33 7 224 49 204 46 229 42 232 25
737 8 27 12 10 210 6 212 30 216 59 225 52
183 14 67 230 17 205 45
230 224 21 226 42 16 5 223 21 189 19 204 14 208 39
765 6 2 13 51 14 9 205 36 206 22 214 18 218 16 225 14 228 17 235 6
191 4 17 24 42 221 31 232 12 233 27
122 221 40 231 12 226 25 233 53 204 49
149 24 12 231 27 209 34 179 4 190 13 204 4 207 16 232 53
204 24 28 21 51 211 22 209 37
743 230 6 185 26 218 1 187 39 205 43
563 51 168 239 628 54 71 237 106
244 54 45 236 106
421 43 549 240 179 170 68 78 104 111 36 115 563 117 2 123 51
453 36 52 53 766 51 159 236 628
566 19 304 17 2 43 220 18 4 22 98 41 1 53 769 238 179
814 111 463 242 190 244 203
525 241 190 244 77
71 244 110 245 142
375 111 2 241 203 242 77 243 110 245 130 246 2
534 244 130 246 151 243 142 250 142
40 256 18 111 75 254 13 244 2 245 151 247 187 250 24 271 41 272 94
62 273 34 111 34 249 104 254 16 246 187 253 45
320 115 44 273 1 77 40 249 19
393 273 51 77 28 111 111 248 19 247 104
437 246 24 245 142 272 96
620 104 4 68 10 65 10 72 1 252 4 259 3
425 66 6 71 1 251 4 259 4 72 6 74 1 257 4
97 268 26 273 34 254 9 247 45 274 40
557 84 1 256 14 90 39 268 16 95 53 246 13 247 16 253 9 274 40
609 63 2 258 15 260 3 261 1 263 7 266 22
698 66 13 61 9 84 86 246 18 254 14 270 27 271 25 275 33
786 66 3 259 4 252 4 260 6 262 3
579 63 12 65 24 255 15 259 1 263 6
705 65 4 258 1 251 3 252 4 257 4 260 1 263 5
798 255 3 259 1 257 6 262 4 265 2 261 3 263 2
821 255 1 266 31 269 37 264 45 265 5 272 19 260 3
869 66 21 257 3 260 4 265 20
743 255 7 258 6 259 5 260 2
589 66 5 261 45 265 22 270 33 272 22
561 66 1 262 20 264 22 260 2 261 5
721 63 22 255 22 261 31 269 3
777 63 37 100 19 269 66
525 67 15 90 32 253 26 254 16 273 8 274 5
846 63 25 266 3 267 66 261 37 272 12
623 66 16 256 27 264 33 271 21 272 7 275 24
239 256 25 270 21 246 41 272 65 275 43
274 269 12 264 22 270 7 246 94 250 96 271 65 261 19
195 67 31 115 12 268 8 247 34 248 1 249 51 253 34
495 268 5 254 40 253 40
768 256 33 270 24 271 43
123 9 62 15 16 26 9 16 34 40 59
49 1 36 3 16 2 23 5 6 25 14
489 6 22 14 42 31 30 27 48
164 4 28 19 37 28 11 29 27 33 32 280 26
223 4 20 221 60 279 26 33 40
