243 659 11
587 2 32 6 1 8 1 10 4 12 31 15 27
313 1 32 4 27 6 16 10 8 11 12 80 1 85 16 90 37
89 5 23 9 8 23 30 24 26 42 17 79 30 83 22
155 2 27 10 61 7 54 80 28
438 11 12 90 47 3 23 9 18 79 33
634 1 1 2 16 11 16 12 1
254 10 11 4 54 80 20 82 50 87 12 89 10
550 1 1 12 23 15 24 17 38 18 20 29 1
160 11 20 3 8 5 18 13 5 18 38 21 32 24 37
81 1 4 2 8 4 61 7 11 15 48 16 1
414 2 12 6 16 12 19 5 12 9 20 18 13 90 4
437 1 31 6 1 8 23 11 19 18 10
114 9 5 17 38 18 8 29 16 20 47 21 18 33 17
42 15 36 16 38 22 21
184 1 27 8 24 10 48 14 36 16 5 22 1 29 34
124 10 1 15 5 14 38
605 8 38 13 38 18 17 29 26
310 8 20 12 10 11 13 9 38 17 17 13 8
39 29 26 22 25
149 13 47 21 12 26 45 28 12 33 4
60 9 32 24 42 13 18 20 12 28 46 43 4
89 15 1 29 21 14 21 19 25
39 3 30 24 55 42 76 43 49
427 3 26 9 37 23 55 21 42 43 33
400 26 3 28 29 31 20 34 20 40 23 41 5
169 20 45 33 6 25 3 28 14 34 38 142 11
817 28 17 43 45 41 9 30 37 32 9
531 21 46 20 12 26 14 25 29 27 17 41 19 43 9
55 8 1 15 34 17 26 13 16 19 26 22 21 33 20
1011 41 48 27 37 32 30 38 4
245 25 20 34 31 40 9 49 37 142 16 155 13
425 43 105 27 9 30 30 35 93 38 3 46 22 55 18 156 3
134 29 20 13 17 20 4 26 6 142 41
638 26 38 25 20 31 31 142 17
409 32 93 46 76 55 47
1193 40 16 49 10 37 1 39 8 56 5 150 16
310 36 1 52 2 54 4 56 6 150 2
489 41 36 30 4 32 3 39 9 44 27 156 23
252 40 18 41 1 38 9 36 8 44 6 56 3
969 25 23 31 9 36 16 39 18 41 23 49 2
563 28 19 25 5 40 23 27 9 30 48 38 36 39 1
167 3 17 23 76 43 60 46 105 83 13 91 202
686 23 49 24 33 42 60 21 4 28 9 27 45 32 105 46 12
384 38 27 156 13 39 6 56 10 52 10 45 1 148 1
904 52 16 44 1 47 4 148 20 151 1 152 1
805 42 105 43 12 32 22 35 76 50 21 55 5 91 102 158 25
606 52 4 54 2 45 4 53 3 151 1
228 55 44 50 20 145 15 146 37
414 31 37 40 2 36 10 143 27 149 2 150 1 155 28
101 46 21 55 9 48 20 146 7 154 10 158 27
775 150 6 151 2 53 3 149 8
649 37 2 56 8 44 10 45 16 47 4 54 1
443 150 1 54 3 47 3 151 4 51 3
391 37 4 150 4 52 1 47 2 53 3
512 32 18 35 47 46 5 48 44 50 9 145 1 156 11
380 36 5 37 6 39 3 44 10 52 8
108 61 29 69 74
230 61 5 69 83 59 10 60 22 64 12 65 83
236 58 10 60 23 64 21 65 38 77 3
381 58 22 59 23 64 30
532 57 29 58 5 64 15 66 35 69 24
238 66 2 63 31 67 13 75 14 78 1
361 62 31 67 23 75 18
80 61 15 58 12 59 21 60 30 66 54 73 26 77 8
132 69 114 58 83 59 38 68 225 76 2 77 5
78 61 35 64 54 62 2 67 39 73 3 75 5
838 66 39 62 13 63 23 75 30
257 69 47 65 225 76 70 84 229
54 57 74 61 24 58 83 65 114 68 47 84 53
768 80 26 85 21 77 9 73 29 71 14
96 85 43 90 29 77 25 70 14 74 21 88 25
243 87 51 89 32 75 16 78 56 81 14
542 80 14 82 21 64 26 77 48 66 3 75 57 70 29
233 77 20 76 35 71 21 86 27 88 34
353 82 2 87 7 66 5 62 14 63 18 67 30 72 16 73 57 78 30
333 65 2 77 47 68 70 74 35 84 36 86 16
92 59 3 64 8 65 5 70 9 71 25 73 48 74 20 76 47
502 62 1 75 30 72 56 81 38
121 90 4 3 30 5 33 83 23 86 22 88 24
362 2 1 4 28 7 20 70 26 73 14 82 27 85 42
102 89 19 78 38 72 14
252 80 27 7 50 73 21 75 2 87 64
261 3 22 42 13 79 23 86 47 91 55
411 91 341 69 53 68 229 76 36 86 57
549 2 16 80 42 70 21 71 43 90 2
298 79 22 83 47 91 7 76 16 84 57 74 27 88 21
199 7 12 82 64 72 51 75 7 89 40
165 90 21 79 24 71 25 74 34 86 21
26 7 10 87 40 72 32 81 19
466 2 37 11 4 85 2 5 47 71 29 79 4 88 21
231 42 202 83 55 46 102 84 341 86 7
23 94 20 101 21 110 15 177 5
203 94 38 99 31 109 18 180 5 186 36 192 12
97 92 20 93 38 101 35 109 5 177 26 180 30
370 97 26 98 26 188 13 189 17
152 97 23 100 9 103 32 185 30 187 8 191 6
262 95 26 96 23 98 5 103 13 104 14 112 13 187 19 189 5
87 95 26 97 5 104 7 188 6
72 93 31 102 18 106 42 109 22 186 8
85 96 9 102 5 103 10 107 31 111 10 181 20 185 21 190 12
77 92 21 94 35 105 10 109 28 110 11
329 99 18 186 23 100 5 106 21 107 28 190 28
163 97 13 96 32 100 10 108 18 111 21 112 7 115 8
458 97 14 98 7 112 35 117 21
28 101 10 110 28 109 25 118 18 122 26
62 99 42 109 12 102 21 107 7 113 54 137 6
282 100 31 102 28 106 7 111 18 113 20 116 30
79 103 18 111 21 114 8 115 28
154 94 5 101 28 93 18 99 22 105 25 106 12 118 16 137 22
39 92 15 101 11 105 28 122 15
141 100 10 103 21 107 18 108 21 114 1 116 7 124 11
498 97 13 103 7 104 35 115 27 117 1 120 19
374 106 54 107 20 116 6 121 37 125 17 137 1 141 19
305 111 1 108 8 115 18 123 19 124 25 136 10
150 103 8 112 27 108 28 114 18 119 7 120 11 123 8
328 107 30 111 7 113 6 124 32 125 31
139 104 21 112 1 120 28
41 109 16 105 18 122 41 137 54
148 115 7 120 27 123 18 134 16 215 24
231 112 19 115 11 117 28 119 27 215 6
230 113 37 125 10 126 23 141 37 210 19
146 110 15 105 26 118 41 137 14
228 115 8 114 19 119 18 134 13 136 14
135 111 11 116 32 114 25 125 3 136 11 138 3
293 113 17 116 31 124 3 121 10 126 28 138 10
153 121 23 125 28 131 2 138 10 210 2 214 27
502 128 5 129 2 130 2 132 1 139 8 219 1
819 131 8 127 5 132 1 219 10
806 127 2 130 4 132 4
674 127 2 129 4 132 1 133 2 135 7 139 3
589 126 2 138 10 128 8 132 4 214 3 219 2
409 138 3 131 4 127 1 128 1 129 4 130 1 135 1
621 136 3 138 5 130 2 139 1 135 9 140 14
229 123 13 136 10 119 16 140 9 215 15 216 6
576 138 5 130 7 132 1 133 9
186 114 10 124 11 123 14 133 3 134 10 138 14 140 15
258 109 22 106 6 118 54 122 14 113 1 141 32 213 55
783 124 3 125 10 136 14 126 10 131 10 132 3 133 5 135 5
836 127 8 130 3 133 1 140 13 216 1 218 23 219 15
821 136 15 134 9 139 13 133 14 216 16
338 113 19 137 32 121 37 210 23 212 1 213 35
97 33 41 26 11 31 16 34 17 153 9 155 13 164 8
922 49 27 155 19 147 28 149 6 162 6 165 17
834 152 3 147 18 162 37 157 23
485 55 1 156 49 48 15 146 4 160 23 163 24
248 50 7 48 37 145 4 154 25 160 22
483 151 2 152 5 143 28 149 12 144 18 162 1
462 156 10 44 1 45 20 152 4 157 17
620 49 2 150 8 151 3 143 6 51 8 147 12
418 49 1 36 16 37 2 51 6 53 1 54 4 149 8
216 45 1 47 1 51 2 53 4 147 2 149 3 152 7
732 45 1 148 4 151 7 144 3 147 5 157 7
162 142 9 155 39 164 43 167 31
136 50 10 158 16 146 25 160 16 175 29
250 31 13 142 13 49 28 143 19 153 39 165 26 167 16
448 32 3 38 23 55 11 44 13 145 49 148 10 157 7 162 6 163 4
748 156 7 148 17 152 7 162 1 144 23
196 46 25 50 27 154 16
371 162 7 160 1 163 32 168 26 169 16
90 145 23 146 22 154 16 159 1 161 28 163 18 168 9 175 4
119 160 28 175 29 168 9 176 38
962 156 6 143 6 147 1 144 37 157 1 159 7 163 15 165 26 169 26
112 156 4 145 24 162 15 160 18 159 32
118 142 8 153 43 167 4 170 16
1111 155 26 143 17 180 1 162 26 167 17 169 24 172 56 173 1
122 167 33 170 32 174 43
72 155 16 153 31 164 4 165 17 166 33 170 7 172 12 174 7
134 160 9 159 26 161 9 169 16 173 12 176 14
589 162 26 165 24 159 16 168 16 173 46
83 164 16 167 7 166 32
222 192 24 172 26 174 39 179 4 182 22
273 180 41 192 13 165 56 167 12 171 26 174 2
433 177 40 180 19 165 1 168 12 169 46
90 167 7 172 2 166 43 171 39 179 33
239 154 29 160 4 161 29 176 3
205 175 3 168 14 161 38
687 92 5 94 26 173 40 180 30
67 190 17 179 24 182 28 184 16
82 174 33 171 4 178 24 182 1 183 18 184 13
193 94 30 177 30 93 5 165 1 172 41 173 19 192 37
112 100 20 185 26 183 18 184 21 190 21
62 186 27 192 21 190 10 171 22 179 1 178 28
54 185 2 191 12 181 18 179 18 184 18
92 181 21 190 12 179 13 178 16 183 18
255 96 30 100 21 181 26 183 2 191 29
278 93 36 99 8 102 23 182 27 190 10 192 14
180 97 19 189 18 96 8 191 22
126 95 13 98 6 189 7
127 95 17 97 5 188 7 187 18
84 186 10 100 12 102 28 181 21 178 17 182 10 184 12
100 96 6 185 29 187 22 183 12
445 93 12 180 37 186 14 171 24 172 13 182 21
123 195 21 197 16 201 12 238 13
405 195 12 196 17 200 14 202 11 231 18 233 25 240 21
118 193 21 194 12 198 21 201 2 202 1 233 28 236 2 238 21
259 194 17 200 38 202 22 204 30 205 20
94 193 16 201 26 203 11 238 12
147 195 21 201 27 202 32 203 21
44 200 31 239 8
110 194 14 196 38 199 31 204 1 232 5 239 3 240 26
242 193 12 195 2 197 26 198 27 203 7
224 195 1 194 11 196 22 198 32 203 13 205 15 206 10 207 14
389 197 11 201 7 202 13 198 21 206 39
201 196 30 200 1 205 30
269 196 20 202 15 204 30 207 33
198 202 10 203 39 207 11 209 37
196 202 14 205 33 206 11 208 26 209 5 242 1 243 8
143 207 26 241 2 242 16 243 21
264 206 37 207 5 242 19
223 121 19 141 23 126 2 212 33 214 29 227 26
136 215 16 216 21 224 32 226 22 237 1
87 141 1 210 33 213 23 217 36 223 1 227 6
126 137 55 141 35 212 23 223 42
565 126 27 210 29 131 3 218 3 219 32 222 7 225 6 227 2
276 120 6 119 24 134 15 211 16 216 11 224 4
221 134 6 215 11 139 1 140 16 211 21 218 22 226 11
148 212 36 227 20 220 14 223 25
269 214 3 139 23 219 8 216 22 225 33 226 10
651 131 2 214 32 127 1 128 10 139 15 218 8
131 236 27 227 1 217 14 223 30 229 18
128 231 12 240 1 222 30 225 16 228 26
201 214 7 231 16 227 30 221 30 225 9 229 9
116 213 42 212 1 217 25 220 30
39 215 4 211 32 235 11 237 9
162 214 6 218 33 226 9 222 9 221 16 228 17 230 11
160 216 11 218 10 211 22 225 9 230 13 237 20
317 210 26 214 2 212 6 217 20 220 1 222 30 229 29
153 240 11 232 6 225 17 221 26 230 13
179 231 6 233 28 236 4 227 29 222 9 220 18
82 239 3 232 21 226 13 237 20 225 11 228 13
136 194 18 221 12 222 16 229 6 233 17 240 7
152 200 5 240 27 239 27 228 6 230 21
452 195 28 194 25 231 17 229 28 236 1
82 239 16 237 17 235 16
126 224 11 237 14 234 16
141 195 2 238 24 233 1 220 27 229 4
204 239 11 211 1 224 9 226 20 230 20 234 17 235 14
139 193 13 195 21 197 12 236 24
96 200 3 199 8 230 3 232 27 234 16 237 11
244 194 21 200 26 231 7 221 1 228 11 232 27
79 208 2 242 11 243 10
133 207 1 209 19 208 16 241 11
103 207 8 208 21 241 10
