252 697 11
142 2 13 3 40 5 17
39 1 13 5 432 19 286
50 1 40 4 61 5 27
289 3 61 5 137 8 185
74 1 17 2 432 3 27 4 137 8 28 19 279
84 8 17 10 30 17 67 21 6 24 55
556 19 40 8 75 9 74 11 87 12 11
86 5 28 19 114 4 185 6 17 7 75 9 7 17 34 24 31
797 8 7 17 42 7 74 12 23 15 27
142 6 30 21 68 24 38
578 19 67 7 87 12 3 18 31 32 9 33 77
673 7 11 9 23 11 3 13 1 15 13 16 31 18 8
578 12 1 15 7 18 7 14 10 16 8
114 15 13 18 9 13 10 20 15 22 28
1227 17 18 9 27 12 13 13 7 14 13 22 6
595 12 31 18 25 13 8
174 8 34 6 67 9 42 15 18 21 3 22 31
356 11 31 12 8 13 7 14 9 16 25 20 53 32 9
106 2 286 5 279 7 40 8 114 11 67 30 363 33 229
41 18 53 32 19 14 15 22 20 23 64
49 6 6 10 68 17 3 22 49
156 17 31 21 49 15 6 14 28 20 20 23 21
32 32 11 20 64 22 21 34 27 35 41
26 8 31 6 55 10 38
55 34 47 35 56 26 53 27 68 31 51
97 32 59 33 213 30 90 34 15 25 53 31 48 77 130 78 79
157 35 22 25 68 29 75 31 23 73 51
550 30 239 78 51 40 246 50 86
1148 27 75 73 42 74 58 76 4
160 19 363 33 7 26 90 28 239 40 210 78 203
122 25 51 26 48 27 23 73 89 77 83 81 51
39 11 9 18 9 20 19 23 11 26 59 33 71 34 83
122 19 229 11 77 32 71 26 213 30 7
32 32 83 23 27 25 47 26 15 35 44
54 23 41 34 44 25 56 27 22
78 37 28 39 8 41 27 42 27 83 16
444 36 28 42 2 47 33 49 45 56 13 82 26 83 45
204 45 68 48 48 55 32 62 68 84 38 85 38
97 36 8 41 22 44 28 46 2
126 30 210 28 246 50 73 51 133 52 138 59 40 63 25
246 36 27 39 22 42 28 46 25 57 12
563 36 27 37 2 41 28 49 44 56 19 57 27
212 47 17 56 49 53 27 67 50 72 50
118 39 28 46 22 54 20
317 81 3 38 68 53 58 55 36 85 67 86 46 199 14
565 39 2 41 25 44 22 54 10 57 30 66 10
152 37 33 43 17 53 64 56 17 79 26 82 36 86 33
68 78 44 50 16 38 48 60 120 62 34 84 122 197 49
125 37 45 42 44 56 56
666 78 105 28 86 40 73 48 16 60 121 63 125 216 99
105 40 133 52 57 59 284 61 131 190 75
657 40 138 51 57 61 185 63 174
102 47 64 45 58 43 27 72 62 86 52 199 2
97 44 20 46 10 66 59
831 38 32 45 36 62 59 199 88
249 37 13 42 19 47 17 49 56 43 49 57 1 58 5 67 30 69 19
322 41 12 42 27 56 1 46 30 58 49 66 21
67 56 5 57 49 66 22 69 53 187 33
109 40 40 51 284 190 7
321 50 121 48 120 197 140 216 58
1302 51 131 52 185 63 31 190 65
149 38 68 48 34 55 59 197 63 199 38 202 22 204 31
157 40 25 50 125 52 174 61 31 216 153
238 67 33 69 46 65 29 70 4 71 35
564 67 35 72 28 64 29 70 37
346 46 10 57 21 54 59 58 22 187 41
86 56 30 43 50 64 33 65 35 69 1 72 2
320 70 21 71 16 188 15 191 22 192 28
442 56 19 67 1 58 53 64 46 71 10 187 29 188 17 193 15
754 72 14 64 4 65 37 68 21 71 18 191 42
165 69 10 64 35 70 18 68 16 188 35
188 43 50 53 62 67 2 65 28 70 14 189 19 191 17 198 66 199 9
163 27 51 31 89 29 42 76 64 79 33 81 10
140 29 58 76 49 80 59
799 77 120 78 143 84 113 85 45
42 29 4 73 64 74 49 79 66 80 14 82 27
130 26 130 31 83 75 120 78 34 81 66 85 46
119 30 203 26 79 77 34 28 51 48 44 50 105 75 143 84 39
182 73 33 76 66 81 17 47 26 82 35 86 60
153 74 59 76 14 83 9 82 32 87 42
541 31 51 77 66 73 10 45 3 79 17 85 71 86 73
118 76 27 37 26 83 43 47 36 79 35 80 32
106 36 16 37 45 80 9 82 43 87 53
166 78 39 38 38 48 122 75 113 85 34
164 77 46 81 71 38 38 45 67 84 34 75 45
139 81 73 47 33 45 46 53 52 79 60
233 83 53 80 42
394 92 26 104 94 113 98
935 95 22 98 35 100 12 101 27 105 28 233 17
259 104 116 91 19 148 35 156 195 220 1 236 40 238 3
82 92 22 104 60 90 19 236 43 238 2
440 88 26 91 22 94 22 103 38 104 1 113 15 238 14 242 17
1069 96 42 102 55 120 56 211 26 217 98 231 6 237 5
149 92 22 103 16 234 6 239 22 242 20
261 89 22 101 24 106 34 233 32 235 1 237 2
312 93 42 102 50 106 47 237 45
1210 98 4 105 64 103 32 234 38 221 7 243 43
513 89 35 97 4 105 10 223 11 224 1 233 3 241 37 243 51
98 102 38 106 25 114 4 116 36 134 13 136 15
766 89 12 101 7 105 48 109 57 133 34
309 89 27 95 24 100 7 106 27 109 1 115 45 116 18
728 93 55 96 50 99 38 106 7 120 54 136 45
813 92 38 113 1 105 2 94 16 97 32 111 63 234 35
261 88 94 92 1 90 116 91 60 113 48 148 39
227 89 28 98 10 100 48 97 64 103 2 111 1 133 36
483 95 34 101 27 96 47 102 7 237 3 99 25 116 1
387 114 25 116 5 134 16 117 40 135 35 139 14
822 133 16 112 18 129 33 130 11
627 100 57 101 1 115 41 117 17 118 23 126 10 133 7 135 11
205 113 137 148 42 111 20 125 109
1299 113 20 105 1 103 63 133 3 110 20 112 27 125 21 130 40
201 133 46 111 27 108 18 130 32
252 88 98 92 15 104 48 103 1 110 137 111 20 148 14
128 99 4 107 25 116 29 134 36
260 101 45 116 10 109 41 135 43
143 101 18 106 1 99 36 114 29 107 5 115 10 135 12
131 109 17 107 40 118 26 135 19 137 50 139 11 145 17 158 3
1273 109 23 117 26 122 9 126 20 127 13 145 31
628 140 7 143 12 146 8
238 93 56 102 54 136 75 153 64
902 140 7 146 5 124 6 128 2 142 8
1024 118 9 145 13 127 1 142 12 162 8
836 129 20 130 11 124 4 131 14 147 33
726 140 5 121 6 123 4 128 8 131 1 147 9
500 148 41 111 21 130 6 110 109 144 91
1223 109 10 133 6 129 16 118 20 127 16 132 19
1142 118 13 126 16 122 1 128 5 132 1 142 12
900 127 5 121 2 124 8 131 7 132 6 142 2
929 133 14 108 33 123 20 126 16 130 9 131 10 132 8
1133 111 40 108 11 112 32 129 9 123 11 125 6 144 38 147 7
1093 129 10 124 1 128 7 123 14 132 11
1122 129 8 126 19 127 1 128 6 131 11
558 100 34 105 36 109 7 108 16 111 3 112 46 126 6 129 14
293 99 13 114 36 107 16 136 50 139 41
273 116 12 109 11 115 43 107 35 117 19
451 102 45 120 75 99 15 134 50 139 19 153 21
316 117 50 139 1 141 42 151 10 154 24 158 38
67 143 21 147 25 159 23 160 9 161 43
1463 134 41 136 19 107 14 117 11 137 1 141 67 151 4 153 62
597 119 7 121 7 124 5 143 3 146 1 147 2
166 139 67 137 42 151 48
1206 122 12 127 12 146 3 121 8 128 2 162 3
854 119 12 140 3 138 21 146 1 147 19 160 20 162 27
840 148 42 130 38 125 91 147 6 149 12 161 78
1396 117 17 118 31 122 13 158 36 162 21
909 119 8 140 1 143 1 121 5 142 3 162 12
860 130 7 140 2 143 19 124 9 123 33 138 25 144 6 161 5
729 104 39 113 14 90 35 110 42 125 41 144 42 149 16 150 1504 155 284 156 156 240 413
246 148 16 144 12 159 26 161 43 150 15 152 14 155 37 163 27 170 60
239 148 1504 149 15 155 266 163 1724 250 258
1121 139 4 137 10 153 35 141 48 154 52 173 49
510 158 16 159 8 149 14 157 69 169 69 170 42
245 120 64 136 21 139 62 151 35 171 63 173 13 174 14
649 137 24 158 58 151 52 169 36 173 61
181 148 284 149 37 150 266
76 90 195 148 156 220 9 226 246 240 83
362 158 24 162 14 159 11 160 50 152 69
703 117 3 137 38 145 36 152 16 154 58 157 24 162 27 169 29
1318 138 23 149 26 152 8 157 11 160 36 161 32
338 143 20 162 1 138 9 159 36 157 50
1602 147 5 144 78 138 43 159 32 149 43
1306 145 21 158 27 122 8 143 27 146 12 142 3 157 14 160 1
140 149 27 150 1724 168 234 170 2 180 242 250 1261
45 173 53 169 102 180 7 165 31 183 36 186 127
125 180 160 164 31 176 124 186 43
552 167 47 181 19 184 58
250 171 30 174 115 183 18 166 47 184 101
109 163 234 170 68 180 244
1079 158 29 154 36 152 69 170 43 173 23 164 102 180 15
410 149 60 152 42 163 2 168 68 169 43 180 19
640 153 63 173 24 167 30 172 83 174 108 183 28
916 173 42 171 83 183 80
1277 153 13 151 49 154 61 164 53 169 23 171 24 172 42 183 69
77 153 14 171 108 167 115
64 250 77 177 3 178 75 245 33
69 250 343 180 335 165 124 186 37 177 23 178 70 182 54
76 183 14 186 118 176 23 175 3 178 29 182 45 245 125
92 250 69 176 70 175 75 177 29 182 56
744 181 136 185 45 248 163
84 163 242 170 19 250 12 169 15 168 244 164 7 165 160 176 335
141 183 41 166 19 179 136 184 92 185 45 245 40 248 4
169 176 54 177 45 178 56
1147 173 69 171 28 164 36 167 18 172 80 177 14 181 41 184 33 186 44 245 52
848 183 33 166 58 167 101 181 92
742 181 45 179 45
102 164 127 165 43 183 44 176 37 177 118
184 66 41 58 33 69 29 193 49
416 69 17 71 35 68 15 192 32 193 22 194 21
305 72 19 191 34 195 8 196 64 198 69
565 51 75 59 7 61 65 201 122
311 72 17 70 42 68 22 189 34 192 8 195 50 203 14
157 68 28 188 32 191 8 194 22 203 28 206 38
671 69 15 187 49 188 22 194 61 213 1
1003 188 21 192 22 193 61 206 6 213 37 218 35
345 191 50 189 8 196 43 203 37 207 23 214 36
1310 199 22 189 64 198 10 195 43 200 77 208 9 214 10
328 48 49 62 63 60 140 202 98 217 4
1187 72 66 199 93 189 69 196 10
1206 45 14 55 88 62 38 53 2 72 9 196 22 198 93 200 9 204 28
437 199 9 204 82 196 77 205 4 208 57 219 4
44 190 122
329 62 22 197 98 204 93 205 42 217 89
430 191 14 192 28 195 37 206 41 207 38
923 62 31 199 28 202 93 200 82 205 28
87 202 42 204 28 211 18 217 29 200 4 209 35 219 20
1109 192 38 194 6 203 41 207 5 212 11 215 27 218 36
469 195 23 203 38 206 5 214 40 215 36 225 49
302 223 4 196 9 214 62 200 57 219 53
1232 211 22 231 25 224 24 205 35 219 37
899 240 13 226 36 213 44 228 31 232 38
172 93 26 205 18 209 22 217 42 231 40
278 206 11 218 44 215 43 222 12 230 1 232 23
1075 193 1 240 45 194 37 210 44 218 16 232 25
891 221 3 223 26 195 36 196 10 207 40 208 62 225 28
638 206 27 207 36 212 43 222 8 225 4 229 51
81 50 99 63 153 60 58 227 47
485 197 4 202 89 93 98 211 42 205 29
131 194 35 206 36 213 16 212 44 232 32
558 223 40 224 3 200 4 208 53 205 20 209 37
1424 90 1 156 9 226 2 228 11 230 34 238 35
448 234 19 97 7 214 3 223 27 225 62 243 54
326 238 25 242 32 212 12 215 8 229 35 230 32
529 98 11 221 27 243 11 208 4 214 26 219 40 224 43
274 98 1 231 11 235 19 223 43 209 24 219 3 241 30
1174 234 12 221 62 207 49 214 28 215 4 229 20 244 16
585 156 246 220 2 240 212 210 36 228 34
35 216 47
969 220 11 226 34 210 31 230 16 232 10
268 242 7 215 51 225 20 222 35 244 39
131 220 34 238 1 212 1 228 16 232 30 222 32
348 93 6 211 40 209 25 224 11 235 5 237 52
1158 213 25 218 32 212 23 210 38 228 10 230 30
130 89 17 95 32 98 3 235 29 241 20
1036 94 6 103 35 97 38 221 19 225 12 239 3 244 41
123 95 1 233 29 231 5 237 35 224 19 241 19
334 90 40 91 43 238 37
330 95 2 93 5 96 45 231 52 106 3 235 35
1024 92 14 90 3 91 2 220 35 236 37 222 25 230 1 242 5
291 94 22 242 17 234 3 244 30
223 148 413 156 83 210 13 213 45 226 212
223 98 37 233 20 235 19 224 30
415 92 17 238 5 94 20 222 32 229 7 239 17 244 1
598 98 51 97 43 221 54 223 11
553 242 1 234 41 239 30 225 16 229 39
77 250 32 183 52 181 40 175 33 177 125 246 93 248 22 251 78
51 245 93 248 72 249 99 251 72
362 248 180 249 80 252 149
169 181 4 245 22 179 163 246 72 247 180 249 81
191 250 171 248 81 246 99 251 96 247 80 252 248
119 150 258 163 1261 175 77 176 343 178 69 180 12 245 32 249 171 251 95 252 1729
143 250 95 245 78 246 72 249 96
109 250 1729 249 248 247 149
