211 577 11
236 2 39 3 35 9 31 87 29 211 26
654 1 39 87 6 89 22 92 29 93 12 210 8 211 34
226 1 35 6 3 9 35 13 151 29 159 87 23 88 29 90 13
235 210 6 5 26 7 35 10 12 11 1 16 47
390 6 18 4 26 7 18 8 15 11 20 15 7
192 3 3 9 23 5 18 8 50 15 27 29 64
370 9 15 211 15 210 36 4 35 5 18 8 9
357 9 52 6 50 5 15 7 9
315 1 31 3 35 6 23 7 15 8 52 211 29
410 4 12 14 31 16 20 17 9 19 46
670 4 1 5 20 14 25 15 39 16 17 18 30 164 11
475 13 323 29 312 79 38 80 67 86 703
221 3 151 12 323 29 220 79 100 90 60 94 30
718 10 31 11 25 16 30 17 12 18 18
249 6 27 29 33 5 7 11 39 160 37 164 4
237 4 47 10 20 11 17 14 30
205 10 9 14 12 18 22 19 24 23 7 26 22 27 16
222 11 30 14 18 17 22 27 27 50 31 164 22
177 10 46 17 24 26 43
933 21 13 24 19 25 3 28 8 41 3 45 2 49 8 54 12
661 20 13 41 9 49 8 52 2 53 8
68 23 28 26 19 42 26 48 40 51 5
49 17 7 22 28 24 15 26 36 27 13 51 5 54 9
892 23 15 27 26 20 19 28 6 54 16
373 50 35 20 3 28 19 49 44
134 17 22 19 43 23 36 22 19
525 17 16 18 27 23 13 24 26 28 16 50 1
872 27 16 50 20 20 8 24 6 25 19
299 3 159 6 64 13 220 12 312 15 33 86 179 109 288 160 779
324 34 4 35 1 62 1 65 2 68 5
825 164 77 50 22 49 42 52 3 46 17 47 1 69 12 70 40 72 49 166 18
431 45 9 54 1 42 2 51 18 33 21 58 2
708 41 1 45 10 32 21 57 9 58 5 66 25
775 30 4 35 2 36 2 38 1 39 3 65 2
416 30 1 34 2 38 4 64 2 67 1 68 1 70 1
503 34 2 37 1 38 2 39 3 40 2 43 2
530 69 12 70 8 36 1 38 5 43 3
515 34 1 35 4 70 4 36 2 37 5
315 41 4 34 3 65 9 66 1 36 3 40 4 44 1
492 47 1 36 2 39 4 43 2 44 6
1047 20 3 21 9 33 1 39 4 44 5 45 5 53 5 66 9
260 22 26 32 2 48 1 51 33 58 31
546 47 2 69 2 36 2 37 3 40 2
360 41 5 52 5 53 1 47 1 39 1 40 6
1051 20 2 41 5 32 9 33 10 54 15
732 31 17 47 5 69 14
936 52 6 31 1 46 5 40 1 43 2 44 1 69 1
71 22 40 42 1 55 37 58 12
865 50 2 20 8 21 8 25 44 31 42 52 4
390 18 31 164 68 27 1 25 35 28 20 31 22 49 2
219 23 5 54 23 22 5 42 33 32 18
1001 21 2 49 4 31 3 44 5 47 6 53 5
740 21 8 41 5 52 5 44 1
413 23 9 20 12 24 16 45 15 32 1 51 23
81 48 37 58 19 74 28 154 18
519 72 18 57 34 74 15 59 1 61 7 156 47
577 33 9 58 19 56 34 59 7 60 19 66 4 74 7
312 42 31 48 12 32 2 33 5 55 19 57 19 74 31
505 62 10 57 7 56 1 60 15 61 14
883 62 1 65 1 57 19 66 13 59 15
541 62 1 72 27 64 1 56 7 59 14 63 16
482 30 1 59 10 60 1 61 1 63 8 65 8 67 1 68 4
887 62 8 64 10 67 5 61 16
652 35 2 70 17 72 4 61 1 63 10 67 4
1120 30 2 34 2 62 8 39 9 60 1 66 13
880 41 9 65 13 33 25 57 4 39 1 60 13
695 35 1 62 1 68 4 64 4 63 5
823 30 5 35 1 62 4 67 4
1081 31 12 46 14 47 1 37 12 43 2 70 13
1036 35 1 31 40 69 13 37 8 38 4 64 17 72 52
585 74 11 154 4 156 44 73 20 153 48 155 4
367 31 49 70 52 56 18 61 27 64 4 73 31 155 6 156 13 166 90
564 72 31 156 27 71 20 155 65
138 58 31 57 7 55 28 56 15 71 11 154 53 156 21
345 79 62 80 69 85 19
792 85 17 77 42 78 24
704 76 42 78 33
707 92 10 93 1 85 21 76 24 77 33 81 32 82 26
530 13 100 12 38 75 62 80 17 83 21 85 36 94 4
468 12 67 79 17 75 69 86 30
508 89 16 93 53 94 13 78 32 82 18 83 4
241 85 32 78 26 81 18 83 23 84 19
436 79 21 94 49 85 1 81 4 82 23 84 25
315 85 11 82 19 83 25
309 79 36 75 19 76 17 78 21 82 32 83 1 84 11
343 29 179 12 703 80 30
104 1 29 2 6 3 23 88 29 89 15
23 3 29 87 29 89 5 90 37 91 16
216 2 22 87 15 81 16 88 5 91 28 93 16 94 26
157 3 13 13 60 88 37 91 25 94 4
184 89 28 88 16 90 25 94 11
834 2 29 78 10 93 55
665 2 12 89 16 92 55 78 1 81 53
122 89 26 13 30 90 4 79 4 81 13 83 49 91 11
289 96 26 97 10 99 4 100 55 105 58 186 5
205 95 26 99 35 101 17 185 21 186 14 187 3 188 17
193 95 10 98 28 105 39 182 19 184 4 186 22
178 97 28 105 2 103 61 178 2 179 43 182 2
706 95 4 96 35 100 42 101 40 104 14 107 8 117 3
180 95 55 99 42 105 16 117 78 203 14
111 96 17 99 40 107 50 185 11
557 104 23 106 16 113 21 114 12
83 105 109 98 61 108 190 178 17 203 67
715 99 14 102 23 106 19 107 15 114 18 117 35
211 95 58 97 39 100 16 98 2 103 109 203 94
118 104 19 107 25 102 16 113 1 116 20
11 99 8 101 50 104 15 106 25 116 41
885 109 353 103 190 178 11 203 311 170 18 172 11 173 36 174 107 176 23
156 29 288 160 480 108 353 163 43 166 302 174 130 203 407
240 115 49 119 41 121 17 126 20
191 113 26 116 20 126 6 112 28 120 2 124 26
534 126 13 111 28 120 26
509 102 21 106 1 111 26 114 22 116 14 126 9
77 104 18 117 17 102 12 113 22 115 50 126 4
83 117 21 114 50 110 49 121 21 126 3
272 107 41 106 20 113 14 111 20 124 28
379 99 3 100 78 104 35 114 17 115 21 121 7 203 62
121 120 13 124 24 122 43 132 3 135 41 139 1
395 110 41 121 21 126 27 133 13 134 58 138 1
453 126 22 111 2 112 26 118 13 124 11 133 18 135 6
456 117 7 203 140 110 17 115 21 119 21 134 28 136 112
276 124 15 118 43 123 39 125 1 139 5 141 26
252 122 39 125 38 141 22
321 116 28 111 26 120 11 118 24 122 15 125 34
160 124 34 122 1 123 38
322 113 9 114 4 110 20 115 3 119 27 111 6 112 13 120 22 133 14
907 132 8 128 6 129 5 140 11
565 132 6 127 6 129 3 131 9
941 127 5 128 3 131 3 140 2 142 9
325 134 46 138 40 136 39 148 18 201 18
817 132 13 133 10 128 9 129 3 142 2 143 22
896 118 3 127 8 128 6 131 13 133 4 135 20 139 33 140 5
946 119 13 126 14 120 18 132 4 135 37 131 10 138 1 143 25
387 119 58 121 28 130 46 136 15 138 25
315 120 6 118 41 132 20 133 37
207 203 499 121 112 134 15 130 39 201 616
574 138 23 140 21 142 19 148 22 143 1 147 7 149 30
732 119 1 133 1 134 25 130 40 137 23 143 44 148 26
520 118 1 122 5 132 33 140 26 141 24 149 2 150 38
747 132 5 139 26 127 11 129 2 137 21 142 6 149 14
229 122 26 139 24 123 22 150 73
1014 129 9 140 6 131 2 137 19 143 18
667 133 25 138 44 131 22 142 18 137 1
430 147 25 146 24 192 5 194 13 196 36 202 20
54 148 45 201 66 196 36 193 62
175 144 24 192 54 194 49
90 148 26 137 7 144 25 149 34 194 6 196 25
185 138 26 130 18 137 22 145 45 147 26 196 16 201 11
245 139 2 140 14 137 30 147 34 150 11 194 26 195 33
201 139 38 141 73 149 11 195 87
135 154 17 153 30 152 48 161 3 165 44
210 154 34 151 48 161 57
749 154 14 71 48 151 30 155 18 165 6 167 43
210 55 18 74 53 71 4 151 17 152 34 153 14 161 1
721 72 6 166 15 71 4 73 65 153 18 162 53 167 20
431 72 13 74 21 56 47 71 44 73 27
320 173 74 174 62 163 10 162 33
83 161 3 165 36 169 42
907 173 21 167 47 162 20 169 39 168 44 171 1
216 29 779 15 37 164 194 109 480 166 174
29 154 1 151 3 152 57 158 3 165 8
603 166 53 155 53 173 5 163 28 167 24 157 33 159 20
424 109 43 166 40 174 22 157 10 162 28
357 11 11 15 4 18 22 31 77 50 68 160 194 166 60
102 153 6 151 44 161 8 158 36 167 23 169 10
350 164 60 160 174 109 302 31 18 72 90 155 15 162 53 163 40
358 153 43 155 20 165 23 159 47 162 24 169 10
644 173 37 159 44 171 14 175 46
76 165 10 167 10 158 42 159 39 171 29
912 108 18 172 14 176 56 177 46
30 176 5 169 29 159 1 168 14 175 30 177 7
240 178 58 108 11 170 14 177 43
289 108 36 157 74 159 21 162 5 168 37 174 10 175 3 176 28
268 109 130 108 107 173 10 157 62 163 22
582 173 3 176 49 168 46 171 30
224 108 23 170 56 173 28 171 5 175 49 177 4
523 170 46 172 43 176 4 171 7
385 98 2 103 17 108 11 172 58 179 8
779 98 43 182 35 178 8
20 187 1 181 44 183 40
57 185 28 187 9 180 44
405 97 19 187 12 188 2 98 2 179 35 184 26
11 187 24 180 40
340 97 4 186 16 188 17 182 26
184 96 21 101 11 181 28 187 31
361 95 5 96 14 97 22 184 16 188 19
154 96 3 185 31 180 1 181 9 182 12 183 24 188 37
309 96 17 186 19 187 37 182 2 184 17
192 191 102 198 13 205 3 208 34
185 191 109 199 52 209 670
87 189 102 190 109 198 19 199 50
357 144 5 146 54 194 1 195 34 202 42 204 41 206 27
241 201 35 196 25 145 62 199 31 207 97 209 6
142 147 6 149 26 144 13 146 49 192 1 195 33
216 149 33 150 87 192 34 194 33 204 31
189 148 16 147 25 144 36 145 36 193 25 199 21 202 15
345 198 17 205 30 206 1 200 21
297 189 13 191 19 197 17 199 28 200 35 205 6
148 196 21 202 13 193 31 191 50 198 28 190 52 200 2 209 1
136 202 52 198 35 199 2 206 7 197 21
213 203 203 136 616 130 18 148 11 145 66 193 35 207 734
556 144 20 192 42 196 15 199 13 200 52 206 12
844 109 407 100 14 105 94 103 67 117 62 108 311 121 140 136 499 201 203
161 192 41 195 31 206 61
854 189 3 198 6 197 30 206 17 208 30
427 192 27 202 12 205 17 208 28 204 61 197 1 200 7
229 201 734 193 97 209 805
476 189 34 205 30 206 28
64 193 6 190 670 199 1 207 805
117 2 8 211 50 4 6 7 36
542 1 26 2 34 9 29 7 15 210 50
