413 1188 11
117 2 35 3 35 4 11 5 2
228 1 35 3 33 5 18 6 44 7 15
278 1 35 2 33 7 33
149 1 11 5 25 8 50 16 3
397 1 2 2 18 4 25 6 24 8 2 9 19
319 2 44 5 24 7 56 9 5 12 4
223 2 15 3 33 6 56 12 103 66 348 72 614
176 4 50 5 2 9 44 11 29 16 7 17 14 21 15
101 5 19 6 5 8 44 10 33 12 6 21 19
1830 9 33 12 34 21 27 20 13
591 8 29 16 80 17 77
209 6 4 7 103 9 6 10 34 20 62 66 34
48 15 20 18 33 61 14 62 32 65 29
211 66 315 15 8 63 72 69 285
240 66 60 20 31 13 20 14 8 18 19 62 35 63 8
1073 4 3 8 7 11 80 17 19
334 8 14 16 19 11 77 19 26 21 4 64 93
121 20 15 13 33 15 19 19 54 65 33
114 17 26 21 58 20 9 18 54 65 4 64 19
147 12 62 66 49 21 24 10 13 15 31 18 15 19 9
214 8 15 9 19 17 4 10 27 19 58 20 24
509 27 15 31 55 38 14 46 18 97 1 98 1 103 57 104 27
1815 24 35 28 29 34 42 35 81 108 11
206 23 35 25 23 28 30 34 54
113 24 23 28 20 34 1 29 50 33 18 36 21 37 40
322 38 50 103 94 47 848 105 782
195 22 15 29 39 31 15 33 55 104 32
610 23 29 24 30 25 20 29 16 82 4 90 23 96 17 106 30 107 26 108 1
177 27 39 104 19 28 16 25 50 33 10 107 59
136 35 19 40 155 83 10 92 36 99 58 100 35 102 17
269 22 55 27 15 33 16 39 17 45 26 46 20
836 33 1 36 1 37 95 50 92 58 15
124 27 55 31 16 25 18 29 10 32 1 37 2 39 49 48 6 50 6
103 23 42 24 54 25 1 35 7 36 76 58 38
637 23 81 34 7 30 19 40 27 58 21 102 13 106 68 108 8
447 34 76 25 21 32 1 37 61 58 23
1045 25 40 33 2 36 61 32 95
370 22 14 26 50 44 42 46 44 47 26 103 18
169 31 17 33 49 41 2 42 44 43 28 45 25 48 1
170 35 27 30 155 58 51 167 168
233 39 2 45 35 43 36 53 22 54 9 55 11
132 39 44 48 65 43 1 54 38 57 23
73 39 28 41 36 42 1 54 31
111 38 42 46 39 47 3 49 56 51 47 55 5
137 31 26 46 48 39 25 41 35 55 24
367 22 18 31 20 38 44 44 39 45 48 55 12
114 38 26 26 848 44 3 49 42 105 12 173 832
1381 33 6 39 1 50 92 58 13 42 65 52 6 57 41
407 47 42 44 56 51 3 59 53 173 50
1594 33 6 32 92 48 92 58 23
553 44 47 55 48 49 3 59 35 170 41 172 12
744 58 132 48 6 167 1 57 14 177 131 197 2
102 41 22 54 1 55 37 56 31 169 1 172 30
214 41 9 42 38 43 31 53 1 56 37 57 13
121 46 12 45 24 44 5 41 11 53 37 51 48 172 27
228 53 31 54 37 57 29 60 2 169 35
210 48 41 42 23 54 13 52 14 56 29 60 70 177 21
435 34 38 35 21 36 23 40 51 32 15 50 23 48 13 52 132 167 74
39 49 53 51 35 173 2 168 52 170 17 175 16
185 57 70 177 27 56 2 169 23 188 76
44 13 14 62 29 65 14 67 28 68 29
154 13 32 15 35 61 29 63 22 68 11 71 23
73 15 8 62 22 14 72 69 4 71 23 75 66
328 17 93 65 26 19 19 70 74 83 24
48 13 29 18 33 61 14 19 4 64 26 67 18 70 37
42 7 348 12 34 14 315 15 60 20 49 69 64 72 63
68 61 28 65 18 83 3 68 48 70 41 77 67
30 61 29 62 11 67 48 71 71 77 5
153 66 64 72 340 14 285 63 4 73 38 75 37 79 29
445 65 37 64 74 83 73 67 41
39 62 23 63 23 100 6 68 71 75 15 77 7 85 78
1426 7 614 66 63 69 340 73 33 74 76 80 4 95 146 105 676
735 72 33 69 38 78 9 79 24 80 24 81 8
1439 72 76 80 29 89 30 95 46
198 63 66 69 37 71 15 76 6 79 41 85 39
23 82 39 90 11 75 6 79 6 85 48 86 52
470 83 74 100 107 67 67 68 5 71 7
423 73 9 79 28 81 27 86 40 87 21
34 69 29 75 41 73 24 76 6 78 28 86 24
407 72 4 73 24 74 29 81 23 89 10
537 73 8 80 23 78 27 87 16 89 16
30 28 4 76 39 85 43 90 63 96 73
302 64 24 30 10 67 3 70 73 77 74 100 47
653 90 33 86 14 87 37 88 1 94 36 101 23
89 82 43 96 4 92 33 100 7 71 78 75 39 76 48
80 90 26 79 24 78 40 76 52 84 14 87 2
223 78 21 81 16 89 14 86 2 84 37 88 14
252 95 44 89 42 87 14 84 1 94 31
323 74 30 80 10 95 1 81 16 87 14 88 42
36 28 23 82 63 76 11 84 33 86 26 101 9 107 48
149 95 5 94 49 101 34 93 39
273 96 16 30 36 85 33 99 106 100 129
70 97 25 98 31 105 6 95 26 101 1 91 39
387 95 2 84 36 88 31 91 49 101 1
360 72 146 105 216 74 46 88 44 89 1 91 5 93 26 94 2
103 28 17 82 73 85 4 92 16 99 44 102 45 106 13
161 22 1 93 25 98 48 101 17 104 58
325 22 1 97 48 93 31 103 53 105 48
1149 96 44 30 58 92 106 102 79
359 30 35 83 47 92 129 71 6 77 107 85 7
152 97 17 104 20 90 9 107 46 84 23 94 1 91 34 93 1
1520 35 13 96 45 106 89 30 17 99 79
417 22 57 38 18 98 53 26 94 105 67
100 22 27 27 32 97 58 29 19 101 20 107 20
266 72 676 98 48 103 67 26 782 47 12 93 6 95 216
1921 28 30 35 68 108 19 96 13 102 89
619 104 20 28 26 29 59 90 48 101 46
2145 23 11 28 1 35 8 106 19
582 110 3 115 7 120 26 122 31 158 3 219 18
407 109 3 120 24 133 1 217 34 219 21 227 8
126 114 3 118 27 131 40 138 35 155 26 218 8 220 42
954 115 5 122 12 116 2 117 12
257 173 635 133 22 217 178 176 184 190 13 209 65 214 15 262 442
404 111 3 131 50 149 18 208 14 220 28 224 44
1683 109 7 112 5 117 9 121 34 122 2 219 10 227 40
680 122 6 112 2 117 1 134 7
1549 115 9 112 12 116 1 121 19 134 18
248 111 27 123 48 138 29 142 22 211 46 218 1 225 6
570 124 78 132 53 143 1 216 20 221 2 226 11 229 82
511 109 26 110 24 133 12 140 34 158 8
1753 115 34 227 1 117 19 209 3 214 9 149 17 224 70 134 23 150 3
1833 109 31 115 2 112 12 116 6 134 11 150 9 158 6
326 118 48 126 5 128 6 129 11 130 20 142 1 144 6 225 33
1464 119 78 143 21 145 27 156 72 216 58 222 43
1285 126 32 128 4 145 49 222 29 127 24 146 47 198 1 199 22
1451 123 5 225 20 125 32 127 22 129 24 199 21 207 12 210 6 213 11 228 1
1052 126 22 128 39 129 20 125 24
744 123 6 125 4 127 39 129 12 130 54 146 6
1101 123 11 126 24 128 12 127 20
817 123 20 128 54 144 5 146 11 153 60
103 111 40 114 50 149 21 155 30
408 119 53 135 29 139 41 143 16 221 4
166 110 1 120 12 113 22 140 36 147 24 217 224 262 231
1629 122 11 116 7 117 18 121 23 150 39
369 132 29 221 19 137 28 139 25 323 1
755 143 1 156 40 139 5 323 56 141 59 293 62
157 221 15 226 38 135 28 223 44 323 55
130 111 35 118 29 142 24 152 32 155 27 166 10
264 132 41 143 41 135 25 136 5 141 8 323 38
421 120 34 158 29 133 36 147 36
865 143 53 139 8 136 59
50 118 22 138 24 123 1 144 31 152 10
1051 119 1 124 21 132 16 136 1 139 41 141 53 156 38
578 123 6 142 31 130 5 152 35 153 52 163 3
105 124 27 125 49 146 2 148 41 156 13 157 18 222 43
375 128 6 130 11 145 2 125 47 148 36 153 9 154 50
358 158 8 133 24 262 23 140 36 160 45 257 28
172 145 41 146 36 154 5 157 40 164 9
543 114 18 131 21 155 10 121 17 150 36 151 56 165 20 224 8 260 1
573 122 9 158 59 149 36 121 3 134 39 151 26 283 11
388 149 56 150 26 260 58 283 57
236 138 32 142 10 144 35 159 22 163 1 166 29
973 130 60 144 52 146 9 154 45 163 45 267 9
823 146 50 153 45 148 5 162 40 164 10 267 38
722 111 26 131 30 138 27 149 10 165 62 166 6
25 124 72 143 38 145 13 136 40 157 63 275 46 293 44
577 145 18 156 63 148 40 164 51 275 19
524 109 3 120 8 122 6 140 29 147 8 150 59 257 46 274 11 283 7
213 152 22 166 31 163 31 161 16
553 262 32 147 45 257 39 311 44
1282 166 12 163 11 159 16 254 11 263 16 266 6 284 10
1001 154 40 164 17 267 39
1476 144 3 153 45 152 1 159 31 161 11 255 34 266 34 267 6
156 148 9 157 51 154 10 162 17 267 7 275 47
1268 155 62 149 20 166 11 260 37 265 4 268 22
1452 138 10 155 6 152 29 159 31 161 12 165 11 263 8 268 17
167 40 168 58 74 52 1 197 176
97 173 1 59 52 171 24 174 39 175 22 186 27
518 53 1 172 14 56 35 60 23 178 44 188 26
133 51 41 59 17 172 7 175 39 184 44
64 168 24 175 22 180 1 183 37 186 36
379 53 30 55 27 51 12 170 7 169 14 178 39 184 20 195 4
105 47 832 49 50 59 2 113 635 168 1 174 195 176 3
41 173 195 168 39 176 170 182 19 186 24
102 59 16 170 39 168 22 171 22 180 24 184 15
1678 173 3 113 184 174 170 182 56 190 8
128 57 21 52 131 60 27 188 16 197 45 198 34 216 73
123 172 39 169 44 188 1 181 24 192 11 195 43
213 186 15 183 11 185 42 193 9 194 44 206 1
280 175 24 218 6 171 1 184 10 183 41 191 46 202 22
241 178 24 195 31 187 2 192 36 196 51 201 13
756 176 56 190 3 174 19 186 24 185 28 193 28
148 171 37 186 2 180 41 179 11 194 20 202 18
155 170 44 172 20 175 15 180 10 191 33 195 51
635 186 15 182 28 179 42 193 32
246 168 27 171 36 174 24 179 15 182 24 183 2 185 15
61 211 25 195 20 181 2 189 38 196 5 204 36 215 8
244 177 16 169 26 60 76 178 1 192 87 198 10
27 218 8 211 29 195 9 191 47 187 38
986 113 13 176 8 182 3 193 58 208 2 214 63
102 218 24 184 33 180 46 195 8 189 47
492 188 87 198 50 178 11 181 36 201 41
328 190 58 208 7 182 28 179 9 185 32 206 10
719 183 20 179 44 202 12 206 36
144 172 4 178 43 184 51 181 31 187 20 189 9 191 8
53 181 51 187 5 200 3 201 17 204 44
56 167 176 52 2 177 45 205 138 216 29 223 30
1194 177 34 188 10 216 63 222 62 125 1 192 50 199 16 201 51
405 126 21 125 22 198 16 200 32 201 61 213 18
164 199 32 213 9 196 3 201 4 204 16 215 15 212 12
688 198 51 199 61 181 13 192 41 196 17 200 4
295 218 28 180 22 183 18 194 12 206 9 203 28
64 218 2 220 26 208 25 206 20 202 28
272 187 36 196 44 200 16 215 26
777 197 138 216 17 229 89 223 80
1120 208 32 179 1 193 10 194 36 202 9 203 20
1572 225 20 126 12 212 3 215 9 228 21
1481 114 14 220 13 190 2 214 11 193 7 203 25 206 32 224 51
769 217 51 227 52 113 65 121 3 214 52
119 126 6 212 1 213 22 228 17
35 118 46 218 45 187 25 189 29 215 19 225 8
1339 207 3 210 1 213 9 228 4 215 9 200 12
134 126 11 199 18 210 22 200 9 212 9
780 113 15 190 63 209 52 121 9 208 11 224 15
118 211 19 225 26 207 9 187 8 204 26 200 15 212 9
232 177 73 197 29 119 20 124 58 198 63 205 17 222 53 229 6
457 110 34 133 224 113 178 209 51 227 11
76 111 8 118 1 180 6 189 8 191 24 202 28 203 2 211 45 220 53
274 109 18 110 21 115 10 227 15
296 111 42 114 28 218 53 203 26 208 13
927 119 2 132 4 135 19 137 15 226 12
294 124 43 216 53 145 43 125 29 198 62
202 197 30 226 39 229 12 137 44 323 42 205 80
921 114 44 214 15 149 8 208 51 121 70
214 118 6 123 33 211 8 126 20 207 20 215 26
81 119 11 221 12 137 38 223 39 229 23
1450 110 8 115 40 219 15 217 11 121 1 209 52
1038 126 1 207 21 210 17 212 4
738 119 82 216 6 226 23 205 89 223 12
692 231 3 233 11 251 1 332 12 333 2
691 230 3 321 4 332 11 333 5 337 2 338 1 341 9
615 233 10 251 8 234 20 236 6 331 5 334 6 335 9 339 3
796 230 11 232 10 251 8 333 2 334 7 338 1
1212 232 20 236 52 247 5 312 36 317 10 331 4
379 257 17 311 78 240 88 241 25 294 34 299 20 381 34
2432 251 6 232 6 234 52 239 2 243 46 247 15
88 260 2 283 32 247 35 317 47 241 18 294 34 299 28 281 27 376 1
158 381 43 242 26
1325 251 17 236 2 243 39 244 29 248 17
141 235 88 241 23 245 36 374 69 381 7
194 235 25 240 23 237 18 245 25 294 55 376 49
223 381 41 238 26 319 2 336 48
1485 236 46 247 27 239 39 248 11
1435 251 7 239 29 246 33 248 6
98 240 36 241 25 376 50 374 48
2168 251 14 244 33 248 12 252 30 375 11 382 15
40 234 5 236 15 237 35 243 27 248 6 250 30 317 40 376 47 380 27
775 247 6 239 17 243 11 244 6 246 12 250 8 252 15
2507 375 11 250 7 373 10 379 11
964 247 30 248 8 252 29 375 1 249 7 379 42 380 3
781 230 1 233 8 232 8 236 6 239 17 244 7 246 14 253 6 332 84 372 36 382 66
1403 248 15 246 30 250 29 375 28
970 251 6 332 20 259 74 270 24 271 4 287 54 310 34 314 15 322 33 372 40
1550 161 11 256 5 258 12 266 2 277 11 284 21 290 1
1289 163 34 267 19 266 24 264 10 270 63
1434 254 5 270 4 258 4 277 8
130 158 46 147 28 160 39 235 17 274 50 299 19 311 32
1474 254 12 266 4 270 1 256 4 264 11
376 267 84 275 30 253 74 270 2 287 17
259 149 1 151 58 165 37 237 2 265 40 281 37 283 9
357 265 23 268 9 281 2 269 18 282 10
133 133 231 113 442 147 23 160 32 311 76 319 214 336 6
350 166 8 161 16 268 28 269 13 284 16
1127 266 6 255 10 270 1 258 11
276 165 4 260 40 261 23 268 28 281 25
66 163 34 161 6 254 2 255 24 258 4 264 6
1273 153 9 163 6 154 38 164 7 162 39 255 19 259 84 270 1 275 2
111 166 17 165 22 263 28 265 28 261 9 269 1
370 263 13 284 8 268 1 261 18 282 17
1395 267 1 255 63 253 24 259 2 256 4 258 1 264 1 271 56 277 10
1582 253 4 270 56 277 17 288 32 290 16 314 31
875 273 7 276 4 292 4 309 4
557 284 6 282 1 272 7 276 2 278 10 279 10 309 1
687 158 11 257 50 283 63 299 57
79 156 46 293 20 157 19 164 47 267 2 259 30 287 59 322 27
546 272 4 273 2 279 3 285 6 292 1
1108 254 11 270 10 271 17 256 8 290 3
808 282 8 273 10 309 16 291 18
976 284 13 273 10 276 3 280 16 285 1
987 284 4 290 21 279 16 285 10 308 5
237 260 37 265 25 317 47 237 27 261 2 282 18 291 6
1437 284 6 281 18 261 10 269 17 273 1 278 8 291 24
273 158 7 150 11 151 57 260 9 237 32 274 63 299 11
453 161 10 254 21 263 16 269 8 273 6 279 13 280 4 282 6 290 1
921 276 6 292 7 279 1 280 10 302 8 308 2
1263 314 5 288 5 289 3 304 1 306 1 307 3
221 275 59 253 54 259 17 322 86
931 271 32 314 30 290 7 286 5 289 4
1061 290 4 288 4 308 11 286 3 307 5
1433 254 1 284 1 271 16 277 3 280 21 288 7 289 4 308 4
459 317 11 281 6 282 24 309 13 278 18
1027 272 4 276 1 285 7 302 12 309 15
170 156 44 323 66 136 62 275 20 322 67 348 162
439 235 34 241 55 237 34 299 62
673 296 3 297 4 303 1 313 9 316 3
833 295 3 297 1 301 2 303 5
541 295 4 296 1 298 5 301 4 316 2 330 1
719 308 1 304 1 307 4 297 5 301 1 305 5 330 7
382 257 19 283 11 274 57 235 20 294 62 237 28
911 331 5 312 15 302 11 330 11 305 12
711 304 2 296 2 297 4 303 1 298 1
950 312 23 292 12 309 9 285 8 308 1 300 11 305 2
877 304 1 306 18 295 1 296 5 301 1 313 14
609 286 1 298 1 301 2 303 1 306 4 307 4
896 308 14 302 2 298 5 330 5 300 12
1092 314 28 286 1 304 4 303 18 313 8
1566 308 1 286 3 289 5 304 4 298 4
629 290 4 285 2 280 5 289 11 298 1 302 1 305 14 307 1
888 312 8 317 2 272 4 273 1 292 15 278 16 291 13 302 9
815 332 50 341 22 253 34 313 43 314 11 315 3 318 4 325 1
71 262 76 160 44 257 32 235 78 336 98 381 5
471 234 36 331 6 300 15 302 23 309 8 317 25
847 310 43 314 24 306 8 295 9 303 14 316 1 318 10
1011 253 15 271 31 310 11 286 5 288 30 306 28 313 24
494 310 3 318 6 324 1 325 2 328 1
670 295 3 297 2 313 1 318 1 328 3 330 8 340 7
100 234 10 247 40 312 25 237 47 281 47 291 11 309 2
643 310 4 313 10 316 1 315 6 328 3
207 262 214 242 2 336 99
261 321 4 337 1 331 1 335 3 326 3 329 2
462 231 4 320 4 335 1 337 6 338 5
903 293 67 275 27 253 33 372 60 287 86 348 58 387 80
169 135 1 139 38 137 55 136 56 223 42 293 66 348 189
612 337 6 341 1 315 1 325 5 328 2
630 341 4 310 1 315 2 324 5
1154 337 2 320 3 327 4 329 3
586 337 1 328 3 340 4 326 4 329 1
563 337 1 316 3 315 1 318 3 324 2 327 3 340 2
575 331 7 340 2 320 2 326 3 327 1
1029 331 7 297 1 316 8 298 7 300 11 305 5 340 2
1039 232 5 234 4 300 5 312 6 320 1 329 7 330 7 335 12 340 2
623 230 12 231 11 251 84 253 20 310 50 341 7
813 230 2 231 5 233 2 338 3
662 233 7 338 3 232 6 339 2
680 321 1 338 1 232 9 331 12 320 3 339 6
53 262 6 311 98 381 46 242 48 319 99
608 231 2 321 6 320 1 324 6 326 2 327 1 328 1 341 4
408 231 1 233 1 333 3 321 5 334 3 335 1 339 3
855 338 3 232 3 334 2 335 6
515 331 2 316 7 330 2 328 2 327 4 329 2
787 231 9 332 7 337 4 310 22 324 1 325 4
668 347 4 355 28 391 39 392 15 393 3 394 6 397 25 398 1
40 354 31 385 35 399 25
410 387 110 360 23 386 43 389 49 390 13 395 80
276 355 14 392 12 397 25 360 31 395 8 350 56 371 22 388 40
84 347 44 354 22 399 42 356 36 359 17
100 342 4 346 44 355 36 356 21 391 38 396 22 399 11
1690 323 189 293 162 322 58 351 99 362 246 387 104
88 351 4 362 599 352 24 358 9 402 609
968 355 36 345 56 361 55 371 36
498 348 99 387 61 360 12 349 4 352 22 358 164 362 147
620 351 22 349 24 358 30
72 354 7 359 60
115 343 31 346 22 353 7 359 12 399 35
140 342 28 347 36 345 14 350 36 356 15 357 26 361 5 397 5
143 347 21 355 15 346 36 357 39 359 35 368 11
766 355 26 356 39 361 26 368 43
402 360 103 351 164 349 9 352 30 401 148 402 43
611 354 12 346 17 356 35 353 60 366 53 368 2
271 387 37 344 23 345 31 351 12 358 103 371 109 395 158 400 132 401 31
274 355 5 350 55 371 3 357 26 368 5 369 25 370 43
263 348 246 351 147 349 599
149 368 18 369 36 364 1 404 14 408 19 410 28
130 369 2 363 1 365 34 367 11 409 21 410 39
134 364 34 367 19 406 37 409 7
375 359 53 368 37 403 43
1004 369 1 370 25 364 11 365 19 406 12
256 356 11 359 2 361 5 357 43 363 18 366 37 369 15 403 13 404 2
40 361 25 368 15 363 36 364 2 367 1 370 22
643 371 6 361 43 369 22 367 25 406 26
260 360 109 345 22 350 36 361 3 370 6 400 89 406 44
379 251 36 382 4 253 40 322 60 387 69 390 79
1996 375 28 382 9 249 10 378 37 379 8
264 240 69 381 23 245 48
1526 246 11 252 28 249 11 250 1 373 28 382 15
168 247 47 241 49 237 1 245 50 380 66 385 17
1989 379 26 391 42 396 37 378 35
1436 382 15 373 37 379 1 391 1 377 35 383 26
2249 250 42 380 23 249 11 373 8 377 26 378 1 396 24
157 247 27 376 66 250 3 379 23 385 49 396 41
165 311 5 235 34 240 7 238 43 242 41 336 46 374 23
1041 251 66 246 15 375 15 372 4 373 9 378 15 383 39 384 30 386 27 388 5 390 41
375 382 39 391 1 394 31 378 26 384 24
123 382 30 392 6 394 26 388 65 383 24
137 376 17 380 49 343 35 396 26 399 12
156 382 27 344 43 388 16 389 39 390 80
277 372 69 322 80 348 104 344 110 351 61 360 37 390 38
835 382 5 392 35 386 16 389 19 395 32 345 40 384 65
121 344 49 386 39 388 19 395 82
367 382 41 372 79 387 38 344 13 386 80
573 342 39 347 38 377 42 378 1 383 1 394 32 396 15
882 342 15 345 12 384 6 388 35 394 1 397 17 398 9
364 342 3 397 4 398 8
927 342 6 391 32 392 1 383 31 384 26
211 344 80 360 158 389 82 345 8 388 32
139 380 41 379 24 347 22 391 15 385 26 399 40 377 37
623 342 25 355 5 392 17 393 4 345 25 398 1
837 342 1 392 9 393 8 397 1
89 347 11 343 25 354 35 385 12 346 42 396 40
157 360 132 371 89 401 4 406 52 411 106 413 194
654 360 31 358 148 402 109 400 4 413 260
122 349 609 358 43 401 109 413 577
69 368 13 366 43 404 50
190 368 2 363 14 403 50 405 30 408 21
47 404 30 408 26 407 36
564 371 44 400 52 370 26 365 37 367 12 409 8 411 10
53 408 14 405 36
83 363 19 404 21 405 26 407 14 409 22 410 27
105 364 21 408 22 410 13 365 7 406 8 411 43
298 363 28 364 39 408 27 409 13
286 400 106 409 43 406 10 412 67
238 411 67
679 402 577 401 260 400 194
