213 547 11
64 5 228 3 318 18 60 12 17
87 3 325 10 198 4 1025 12 509
185 1 318 2 325 12 522
192 6 341 10 133 2 1025 8 34
229 1 228 18 259
476 4 341 9 282 8 305
161 9 610 19 312 17 416
854 6 305 9 178 10 61 11 304 4 34
427 6 282 7 610 8 178 17 279 14 128 13 77 11 10
297 11 174 13 350 12 289 2 198 4 133 8 61
345 9 10 10 174 8 304 13 213
148 3 522 1 17 10 289 13 29 2 509 18 314 14 130 21 216
136 9 77 10 350 11 213 14 529 12 29
556 9 128 13 529 12 130 23 203 21 156 17 426
213 29 266 42 189 26 119 22 229
844 50 241 73 147 65 626 68 79
357 7 416 9 279 19 347 23 57 20 3 24 547 14 426
241 5 259 1 60 12 314 21 188
216 7 312 17 347 28 870 20 332 27 335
142 19 332 27 266 23 139 17 3 25 65 24 497
189 12 216 18 188 22 350 26 167 23 364 25 253 14 156
54 15 229 26 455 21 350
430 20 139 25 250 24 242 21 364 14 203 17 57
175 23 242 20 497 17 547
90 26 263 27 340 23 250 20 65 30 71 21 253
185 42 182 15 119 31 266 22 455 30 228 25 263 21 167
245 19 335 28 112 20 266 25 340 30 307 35 24 33 148
201 34 736 19 870 32 75 35 381 27 112
207 42 399 15 266 50 119 45 154
574 31 230 26 228 27 307 25 71 37 13 33 214 36 194
732 45 250 42 400 48 8 26 266 30 230 44 13 37 441
216 34 605 52 376 28 75 54 350
747 27 148 35 263 41 54 30 214 38 29 39 116 36 63
229 35 243 51 261 28 736 52 220 32 605
431 34 243 51 59 28 381 47 10 27 24 41 332 33 263
1014 37 181 30 194 38 93 33 63 43 23
815 31 441 44 258 43 223 30 13 36 181
941 33 29 39 57 36 93 40 38 43 34
907 41 80 38 57 33 116 40 61
922 41 64 38 38 39 61 43 98
896 46 205 47 32 44 49 35 332 43 133 33 54 39 80 40 64
325 29 399 45 466 31 400 15 189 26 182
817 44 106 41 133 37 223 38 34 36 23 40 98
946 31 13 46 376 48 130 41 49 43 106 37 258 49 188 55 145
387 29 154 48 589 31 250 42 466 50 285
315 49 66 47 411 44 376 41 205
121 51 439 46 411 35 10 53 249 49 137 41 32
395 45 589 31 8 58 418 50 214 44 130 55 271
453 46 66 47 137 44 188 53 112 59 269 55 220 60 29
456 29 119 45 285 58 176 48 214 62 214 16 241 65 72
276 34 261 35 59 47 439 53 157 54 2 52 399
252 34 220 51 399 54 387 32 376
321 51 157 47 249 64 280 49 112 54 342 60 261
160 51 2 52 387 32 350 53 342
322 58 209 48 271 44 145 63 43 62 30 61 96 59 131 49 220 60 63
885 67 224 93 118 99 181 88 114 97 236 95 368
156 94 264 107 345
240 50 176 48 418 62 494 55 209
534 55 131 49 269 60 280
191 64 202 53 261 61 267 59 280 55 63 49 29
509 66 212 63 228 64 142 70 7 55 96 60 267
83 58 494 63 500 50 214 55 30 65 219
77 66 122 69 185 61 228 55 43 62 500 65 172
272 60 202 53 280 71 419 70 202 61 142
379 63 172 69 354 62 219 50 72 73 783 72 33 16 626
557 69 239 70 166 61 212 63 122
83 68 137 56 224 88 173 78 612
211 67 137 73 165 75 589 16 79 77 396 78 26
715 66 239 63 185 70 194 71 152 72 146 65 354
118 66 166 69 194 64 202 71 254 61 7
11 69 152 74 509 64 419 72 87 70 254
706 69 146 74 409 71 87 73 425 76 357 75 49 65 33
180 72 425 75 553 65 783 68 165 16 147
111 79 112 71 509 72 409 76 172
289 73 553 72 49 76 264 77 105 68 589 80 56
205 79 217 74 172 72 357 75 264 83 30 80 149 82 177
193 75 105 68 396 78 280 81 44 80 221 85 192
178 67 612 68 26 87 436 88 28 77 280 85 24
184 76 217 74 112 83 311 84 280
361 75 56 76 149 81 162 82 190 77 221
340 82 176 80 162 85 265 77 44
309 76 177 83 376 81 176 80 190 85 22
154 86 242 79 311 84 97 89 2 76 30 90 40 82 376 85 127
57 79 280 83 97 89 449
405 90 106 83 127 87 357 78 24 92 51 81 265 82 22 77 192
11 83 242 89 409 90 342
779 85 357 78 436 88 81 91 363 92 47
385 67 173 93 587 87 81 78 28 56 114 92 162 91 298
20 86 409 84 449 83 2
283 86 342 83 40 92 389 85 106
125 87 363 88 298 92 334
78 93 36 90 389 87 47 88 162 91 334 85 51
240 99 145 56 118 88 587 98 434 92 36
268 107 224 57 264 103 627 95 100
289 104 216 106 51 101 376 96 31 97 285 94 100 103 743 56 368
582 100 304 101 461 97 490 95 31
224 99 561 98 42 100 59 96 490 56 236 95 285
523 93 434 99 461 100 75 97 42
912 93 145 56 181 97 561 98 461
30 102 299 98 75 97 59 96 304 101 142 104 18
644 100 142 104 443 96 461 95 376
76 105 421 109 104 112 103 100 299 104 392
320 106 335 94 627 107 103 95 743
907 112 472 102 392 100 18 106 200 101 443 95 216
83 102 421 109 363
603 111 538 117 537 112 240 104 200 107 289 103 335 95 51
424 111 332 106 289 94 224 57 345 103 103
216 173 177 183 379 110 532
102 116 67 113 441 105 363 112 234 102 104
357 183 49 108 532 176 221 178 112 161 274
350 117 43 106 538 107 332
358 116 437 109 234 117 201 102 103 106 240 104 472
135 116 306 114 489 115 174 109 441
210 113 489 115 349
210 116 147 119 46 114 349 113 174 124 184 122 530
749 115 147 119 485 113 306 117 189 112 437 109 67
721 116 189 121 657 119 41 111 43 120 35 112 201 106 537
431 121 272 119 440 122 215 123 474 120 130
585 116 485 118 440 121 208 122 110 115 46 117 41
575 118 130 121 316 123 182 117 35 127 199
564 118 272 117 657 120 316 119 208
138 118 215 119 110 115 530 123 154 124 286 125 78 126 310
459 118 474 127 79 120 182 122 154 125 344 128 17
81 115 184 122 286 155 374 126 195
997 123 344 122 78 129 190 128 75 133 40 126 196 143 92
128 122 310 124 195 155 121 125 196 139 23 143 50 153 318
648 123 79 120 199 130 119 128 148 132 0
686 123 17 129 153 127 148 125 75 132 107
491 125 190 133 139 128 153 134 19 132 12
887 127 119 131 44 137 51 132 85
652 130 44 136 54 137 48 142 21
300 130 85 129 12 128 107 127 0 134 85 138 43 140 1 137 9
1073 129 139 146 5 134 131 152 98 125 40 143 252
1120 129 19 146 93 140 28 144 22 133 131 132 85
831 157 148 141 14 154 18 148 95 150 22
1036 131 54 142 10 148 37 145 47
695 130 51 131 48 138 45 132 9 142 2
823 132 43 140 58 137 45 142 7
431 143 213 156 95 162 6 158 182 153 22 126 23
324 134 28 144 41 138 58 132 1 142 19
363 157 176 160 165 159 35 154 1 135 14
416 144 24 131 21 138 7 140 19 137 2 145 40 136 10
880 152 18 133 252 125 92 139 213 156 107 126 50
775 146 31 134 22 140 41 145 9 147 21 142 24
515 144 9 142 40 148 50 147 25 136 47
315 149 48 147 34 134 93 144 31 133 5 152 46 151 18
503 146 34 149 23 144 21 148 16 145 25 150 27
530 145 50 147 16 150 32 135 95 136 37
492 146 48 151 63 154 12 147 23 150 28
593 154 23 149 28 148 32 147 27 135 22
360 163 8 159 56 146 18 154 14 149 63 152 55
1047 163 53 164 96 166 32 146 46 151 55 156 52 133 98 143 18
260 165 264 155 17 139 22 158 338 126 318
936 157 55 141 1 159 63 151 14 135 18 149 12 150 23
71 124 374 165 407 126 121 153 17
1051 166 29 152 52 139 95 143 107 162 159
732 154 55 141 176 135 148
219 168 56 165 56 139 182 162 237 153 338
614 141 35 160 42 163 53 164 21 154 63 151 56
865 141 165 159 42 164 85 169 199 166 85
511 176 314 172 1 110 274 170 204 169 0
413 168 94 167 160 166 129 139 6 156 159 158 237
740 152 53 151 8 164 80 159 53
661 160 85 163 80 159 21 166 136 152 96
68 171 193 168 288 155 407 158 56 153 264
933 167 198 160 85 170 83 169 34 164 136 162 129 152 32 156 29
901 172 261 168 155 170 66 162 160 166 198
49 171 360 172 132 174 73 165 288 167 155 158 56 162 94
401 161 0 160 199 170 196 166 34
872 172 160 161 204 167 66 169 196 166 83
134 165 193 168 360 175 432 174 225
525 176 272 174 169 168 132 167 261 170 160 161 1
299 108 177 183 330 187 351
205 171 225 175 244 177 99 176 223 181 127 172 169 168 73
177 171 432 177 461 174 244
257 181 181 178 300 161 314 172 272 174 223 110 221
410 175 461 182 208 184 124 174 99 181 317
670 183 399 182 177 186 201 184 4 176 300 181 257 110 112
475 206 190 195 113
221 199 339 205 133 202 302
718 182 307 177 317 176 181 174 127 178 257
237 184 472 177 208 178 177 181 307
249 173 330 108 379 110 49 178 399 187 274 186 79
451 182 472 177 124 186 268 178 4 191 63 188 352
226 198 228 194 165 196 237
390 183 79 187 185 189 159 178 201 184 268 188 186
192 173 351 183 274 189 292 186 185
370 189 96 186 186 184 352 192 155 190 154 191 368
357 187 292 190 325 186 159 188 96
315 189 325 192 293 188 154 194 188
117 184 63 192 503 188 368 193 87
542 188 155 190 293 191 503 194 260 193 348
654 200 292 203 125 197 227 196 60 192 348 191 87 194 398
236 185 165 196 299 192 260 190 188 193 398
343 206 305 179 113
104 198 291 185 237 197 150 194 299 193 60
216 201 285 198 52 202 268 207 167 203 165 196 150 193 227
23 199 321 201 165 185 228 197 52 196 291
157 180 339 202 46 201 257 198 321
834 204 104 203 556 193 292
184 199 257 202 114 198 165 197 285
122 199 46 180 302 201 114 205 48 197 268 207 137 208 497
665 207 538 204 2 200 556 197 165 193 125
707 207 328 200 104 211 218 209 268 203 2
530 212 335 180 133 202 48 211 369 208 216
468 179 190 212 469 195 305
508 202 137 197 167 209 183 204 328 208 43 203 538
436 202 497 205 216 207 43 210 256 209 233 211 8
241 207 183 204 268 210 196 211 325 208 233
315 209 196 211 119 208 256
305 213 472 212 192 205 369 204 218 210 119 209 325 208 8
416 206 469 213 308 205 335 211 192
415 212 308 211 472
