279 758 11
373 3 8 4 15 5 9 6 24 12 16 38 26
342 8 1 11 47 40 24
197 1 8 4 23 11 22 37 13 38 14 41 17
527 1 15 3 23 5 20 10 10 11 17
1562 1 9 4 20 10 2 12 18 14 15
34 1 24 12 8 18 2 38 11 39 10
271 8 4 15 4 19 4
481 2 1 7 4 9 20 11 19 15 1 19 26
103 8 20 11 1 10 34 15 21 16 3
672 4 10 5 2 11 6 9 34 14 12 16 16
357 3 22 4 17 2 47 8 19 9 1 10 6 37 1 40 6
571 1 16 5 18 6 8 13 11 14 2 18 23
1407 12 11 14 3 18 12 16 9
188 5 15 12 2 10 12 13 3 16 6
181 8 1 18 3 7 4 9 21 16 2 19 5 20 22
530 10 16 14 6 18 15 15 2 9 3 13 9
121 20 28 21 19 22 5 23 25
139 6 2 12 23 13 12 15 3 16 15 20 7 21 20 27 25
366 8 26 7 4 15 5 20 11 23 17
176 18 7 15 22 19 11 17 28 21 7 23 5
197 18 20 20 7 17 19 22 19 26 21 27 23 78 1
149 17 5 21 19 23 21 25 32 26 8
399 19 17 20 5 17 25 22 21
267 26 19 78 17 25 1 79 24 80 6
307 22 32 26 7 24 1 80 34
304 21 21 22 8 24 19 25 7 78 13
377 18 25 21 23 78 32 82 43
219 29 11 30 34 32 16 33 14
132 28 11 30 18 33 19 35 22
327 28 34 29 18
110 37 1 41 35 33 11 35 32 34 3 36 18
527 40 28 37 14 28 16 33 25
152 37 10 28 14 29 19 32 25 31 11 35 6
94 35 30 31 3 36 17
154 29 22 33 6 31 32 34 30
158 41 2 39 34 31 18 34 17
332 3 13 11 1 40 31 31 1 32 14 33 10 41 28
229 1 26 3 14 6 11 39 30 41 9
343 6 10 38 30 41 19 36 34
217 2 24 11 6 32 28 37 31
473 3 17 38 9 37 28 31 35 36 2 39 19
470 43 13 44 1 45 6 47 11 52 12 95 7 96 1
659 42 13 44 24 48 1 93 27 96 5
221 42 1 43 24 47 16 48 16
48 42 6 51 13 52 10 88 17 95 26 97 20
267 48 21 93 31 55 20 58 3 90 6 92 13 94 25
351 42 11 44 16 48 9 52 3 53 20
435 43 1 44 16 47 9 46 21 53 16 54 3 58 16 65 39 93 4
191 52 16 51 4 54 9 56 21 61 5
909 55 22 57 5
69 45 13 52 19 49 4 56 20 68 7 97 30
105 42 12 45 10 47 3 49 16 51 19 53 14 54 2
190 47 20 52 14 48 16 54 26
200 52 2 48 3 53 26 49 9 61 26 65 5 76 7
894 46 20 50 22 57 8 58 8 59 20
97 51 20 49 21 61 10 68 30
623 55 8 50 5 59 13
605 48 16 46 3 55 8 59 3 60 26 62 6 63 23 65 15 70 1
599 55 20 58 3 57 13 60 26 62 6 67 5
846 58 26 59 26 62 15
132 54 26 49 5 56 10 66 27 68 3 76 3
388 58 6 59 6 60 15 67 1 70 5 75 20
658 58 23 65 8 70 10 77 20
186 66 10 73 14 74 17 151 6
759 48 39 58 15 54 5 63 8 76 10 77 16 157 6
216 61 27 68 9 76 7 64 10 73 9 74 12
1109 59 5 62 1 72 22 75 25 161 3
412 51 7 56 30 61 3 66 9 73 20 150 17
679 72 17 161 11 160 3 162 5
838 58 1 62 5 63 10 75 20 77 13 152 6 181 27 189 3
835 153 19 163 14
774 67 22 69 17 160 1 161 4 163 13
518 68 20 66 9 64 14 150 23 151 10 179 1
357 76 12 66 12 64 17 151 7 159 14
365 62 20 70 20 67 25 161 2 189 3
225 54 7 65 10 61 3 66 7 74 12 157 28 159 20
587 65 16 63 20 70 13 152 7 157 22
64 21 1 27 32 26 13 24 17 79 13 82 17 83 8
490 78 13 24 24 80 14 83 7 85 24
148 25 34 24 6 79 14
189 90 23 83 29 85 10 86 14
390 27 43 78 17 83 37 86 11 88 27
318 78 8 79 7 82 37 81 29 85 5 86 14
395 85 20 87 27
336 79 24 90 7 92 16 83 5 81 10 84 20 87 1
238 82 11 88 25 90 6 83 14 81 14 89 16
327 92 1 94 27 85 1 84 27
270 82 27 45 17 95 2 86 25 89 15 91 1 97 28
84 95 14 96 15 88 15 90 12 86 16
133 96 1 93 15 46 6 81 23 85 7 86 6 89 12 92 17
252 88 1 97 35
372 46 13 90 17 85 16 87 1 94 14
41 43 27 96 24 48 4 46 31 90 15
594 46 25 92 14 87 27
69 42 7 45 26 88 2 89 14 96 19
580 42 1 43 5 95 19 89 15 90 1 93 24
93 45 20 51 30 88 28 91 35
397 99 1 100 52 114 6 115 16 222 63
566 98 1 102 22 114 1 211 33 219 11 222 35
466 98 52 114 40 115 20
171 103 4 107 20 109 17 110 33 123 12
689 99 22 114 11 106 8 107 25 123 29 211 9 216 11 223 4
423 101 4 106 7 107 25 109 16 112 23
106 106 10 112 31 108 31 111 18 224 1
320 108 23 111 23 224 17 129 16 213 11
412 102 8 103 7 107 32 104 10 112 1 214 6 223 42 224 7
334 102 25 101 20 103 25 106 32 123 1
168 104 31 105 23 111 8 224 33
295 101 17 103 16 110 6 112 12 120 8
444 101 33 109 6 113 27 120 18 122 18 123 1
268 112 8 104 18 108 8 105 23 119 26 129 22
144 103 23 109 12 106 1 104 31 111 8 119 3 120 13
850 110 27 123 21 121 38 122 21
643 98 6 99 1 100 40 102 11 115 14 123 35
154 98 16 100 20 114 14 116 26 123 20 124 31 240 64
118 115 26 124 1 127 12 139 6 140 4 240 30
217 119 18 126 21 133 5 136 11 138 29
461 123 4 121 35 125 45 142 17 146 1
286 112 3 111 26 129 16 120 29 117 18 126 4 138 5
343 109 8 110 18 112 13 119 29 122 3 126 12 128 9
727 123 7 113 38 122 8 118 35 142 19
59 110 18 120 3 113 21 121 8 128 37 142 8
103 114 35 115 20 102 29 101 12 107 1 110 1 113 21 118 4 121 7 124 9 125 2
215 115 31 123 9 116 1 125 36 140 24
841 123 2 124 36 140 10 118 45 130 3 146 6
278 120 12 119 4 117 21 128 20 134 18 136 6
875 116 12 130 6 139 17 140 27
153 120 9 122 37 126 20 142 11 134 20 246 4
290 111 22 105 16 119 16 137 3 138 21 143 25
221 127 6 139 8 140 5 125 3 146 7 131 2 144 24 147 7 243 13 251 5
608 240 4 139 21 130 2 147 22
136 136 15 134 3 246 25 141 23 244 1
741 117 5 135 17 136 12 138 1 141 3 145 13
410 126 18 136 13 128 20 132 3 246 24
547 133 17 138 5 137 20 143 5 145 14
115 117 11 126 6 133 12 132 15 134 13 141 6
75 129 3 138 24 135 20 143 30
354 129 21 119 5 117 29 133 1 135 5 137 24
170 116 6 240 5 127 17 130 8 131 21
63 116 4 124 24 127 27 125 10 130 5
355 133 3 136 6 132 23 145 13 244 24 248 5
102 122 8 121 19 118 17 128 11 146 33 242 12 245 6 246 10
402 129 25 137 30 135 5 145 6 250 27
226 146 26 130 24 251 22
529 133 13 143 6 141 13 135 14 248 15 250 11
91 118 1 125 6 142 33 130 7 144 26 245 23 251 1
268 240 20 130 7 131 22 243 34
534 154 3 155 2 156 2 158 1 168 3 182 4
616 150 10 179 7 175 14 177 13
554 68 17 73 23 149 10 164 17 175 4 179 2 180 7 183 10
321 64 6 73 10 74 7 159 5 179 20 188 15
325 70 6 77 7 157 15 169 11 173 6 178 9 181 14
490 71 19 163 3 165 2 166 13 185 21
547 161 1 189 13 148 3 158 8 168 11
849 160 1 162 1 148 2 156 1 158 5 170 1 171 3
562 148 2 155 1 170 3 182 1
527 65 6 76 28 77 22 152 15 159 11 169 15 174 2
605 161 9 162 1 148 1 154 8 155 5
472 76 20 74 14 151 5 157 11 174 26 188 1
783 72 1 69 3 155 1 162 5 163 1 165 7 171 1
748 67 3 75 2 72 4 69 11 154 1 158 9 162 4 189 15
884 161 4 69 5 160 5 155 1 158 1
919 72 13 160 1 71 14 153 3 165 4
325 150 17 175 17 183 20 203 15
1191 160 7 153 2 163 4 166 1 171 8
693 153 13 165 1 170 3 171 3 176 4 185 13
488 181 9 169 6 173 24 184 8 201 34
655 189 3 148 3 154 11 176 4 182 1 194 16
327 157 15 152 11 167 6 173 2 174 2 178 9 184 18
456 155 1 156 3 182 1 166 3 171 3 176 1
426 160 1 155 3 165 8 166 3 170 3
328 191 15 192 28 202 7
297 152 6 181 12 169 2 167 24 178 11
416 157 2 159 26 188 26 169 2 184 19 210 16
439 150 4 149 14 164 17 177 1 187 7 203 3
610 168 4 182 5 166 4 185 7 170 1 194 1
642 179 11 149 13 175 1 187 6
187 152 9 169 9 173 11
232 73 1 151 20 150 2 149 7 177 11 187 5 188 4
121 150 7 183 29 190 17
527 70 27 152 14 167 9 173 12 189 34 201 1
399 148 4 156 1 168 1 170 1 176 5
61 150 10 164 20 180 29 186 11 190 1 197 17 200 9 203 15 204 4
186 169 18 174 19 167 8 195 20 201 7 210 13
878 153 21 219 1 166 13 176 7 194 23 199 32
82 183 11 202 30 190 36 204 23
368 179 5 175 7 177 6 188 13 203 5 193 17
367 151 15 179 4 159 1 174 26 187 13 193 9 210 5
680 70 3 75 3 161 15 181 34 154 13 168 3 194 17 198 1 201 6
377 180 17 183 1 186 36
199 172 15 192 18
275 172 28 191 18 202 11 206 28 215 11
197 188 9 203 20 210 29 187 17 200 7 205 7 218 12
1017 189 17 168 16 185 23 176 1 198 37 199 2
94 213 10 184 20 201 10 210 17 196 2 209 18
159 214 24 201 24 195 2 209 18 220 5
237 183 17 200 28 204 19 205 3 221 6 225 33
604 189 1 201 19 194 37 199 21 208 43
1008 219 31 185 32 194 2 198 21 207 33 208 7
298 183 9 203 22 197 28 193 7 205 41
510 181 1 189 6 214 4 167 34 184 7 195 10 196 24 198 19 208 1
193 172 7 192 11 186 30 204 17 212 12 215 26
93 175 3 164 15 183 15 187 5 193 20 200 22
164 183 4 202 17 186 23 197 19 212 8 225 19
151 197 3 200 41 193 7 218 26 221 22
177 192 28 215 27
1069 211 35 219 8 199 33 208 2 217 5
661 214 20 201 1 199 7 198 43 207 2 217 36
155 213 13 195 18 196 18 220 13
600 213 27 188 5 174 16 184 13 193 29 195 17 218 8
1198 99 33 102 9 207 35 216 3 217 5 219 14
316 202 12 204 8 215 27 225 21
671 224 23 105 11 195 10 209 13 210 27 218 6 220 8
322 106 6 223 11 224 6 196 24 201 4 208 20 217 12 220 22
255 192 11 202 26 206 27 212 27
860 102 11 211 3 217 35 223 31
761 211 5 216 35 223 8 214 12 208 36 207 5
169 213 6 210 8 193 12 205 26 221 19
755 99 11 222 22 211 14 185 1 199 31 207 8
194 224 27 213 8 214 22 196 5 209 13
207 197 6 205 22 218 19 225 4
513 98 63 99 35 219 22
888 102 4 106 42 216 31 214 11 217 8
338 106 7 104 1 108 33 105 17 213 23 214 6 220 27
385 197 33 204 19 221 4 212 21
345 229 5 231 87 268 44 269 33 277 35
146 228 8 230 32 234 12 274 9 275 25
134 229 5 227 8 230 6 264 8 270 15 272 21 275 24
107 226 5 228 5 230 17 231 11 233 24 236 10 268 1 270 27
748 229 17 227 32 228 6 234 22 235 8 236 11
193 226 87 229 11 232 51 233 19 239 59 277 43
570 231 51 233 18 236 17 239 70
132 229 24 231 19 232 18 236 17
145 227 12 230 22 235 24 237 25
101 230 8 234 24 236 30 237 4 238 24
308 229 10 230 11 233 17 232 17 235 30 238 10 239 4
124 234 25 235 4 238 19 278 7
419 236 10 235 24 239 7 237 19 276 16 278 17 279 18
107 231 59 277 96 236 4 232 70 238 7 276 208
231 115 64 116 30 131 4 139 5 147 20 243 51 257 5 277 75
219 251 3 242 9 245 27 249 27 253 2
221 142 12 246 30 241 9 245 19 249 6 255 32
667 240 51 130 13 147 34 251 8 257 85
293 246 1 132 1 141 24 248 7 254 15 256 25 263 4
406 142 6 146 23 251 14 242 19 241 27
285 142 10 128 4 134 24 132 25 242 30 244 1 255 4 256 12
102 248 8 250 16 254 21
297 141 5 244 7 145 15 247 8 250 13 254 1
253 242 6 241 27 252 3 253 32 255 5
269 143 27 145 11 248 13 247 16 254 6 261 20
201 146 1 130 5 144 22 243 8 241 3 245 14 253 15 257 31 259 8
304 269 23 249 3 253 3 255 31 256 11 259 10 265 24
526 251 15 241 2 249 32 252 3 259 40
201 244 15 248 1 250 6 247 21 261 20 263 12
75 246 4 242 32 249 5 252 31 256 21
153 246 12 244 25 255 21 252 11 263 26 265 6
486 240 5 243 85 251 31 277 106 259 8
156 264 19 272 4 263 15 261 9 260 1 262 4 266 17
271 251 8 269 56 277 36 257 8 253 40 252 10
755 264 7 258 1 262 27 267 15 271 20
573 250 20 254 20 263 16 258 9 262 44
388 261 44 258 4 260 27 267 18
324 244 4 254 12 256 26 258 15 261 16 265 16 266 1
177 228 8 275 1 258 19 260 7 271 18 272 8
574 269 1 256 6 263 16 252 24 266 19 273 27
114 272 20 263 1 265 19 258 17 273 9
159 274 20 260 15 262 18 271 6
413 226 44 229 1 269 35 270 19 273 5
341 226 33 268 35 252 23 259 56 265 1 273 17 277 10
192 229 27 268 19 228 15 272 12 273 26
442 274 21 275 4 264 18 260 20 267 6
125 228 21 264 8 270 12 258 4 266 20 273 1
107 268 5 269 17 270 26 272 1 265 27 266 9
368 227 9 267 20 271 21 275 24
284 227 25 228 24 274 24 264 1 271 4
68 277 77 239 208 238 16 279 45
178 240 75 226 35 231 43 269 10 239 96 257 106 259 36 276 77
84 237 7 238 17 279 25
130 238 18 278 25 276 45
