575 1566 11
100 5 394 4 360 2 172
29 1 172 4 305 10 428 17 246 11 47
17 24 334 17 432 11 184
60 1 360 5 254 2 305 10 81 7 300 6 325
22 1 394 4 254 6 236
135 4 325 7 85 5 236 9 118 8 203
64 4 300 10 615 6 85 11 39 15 149 9 518
26 6 203 9 269 12 110 14 92
154 7 518 6 118 15 164 13 24 8 269 14 357
77 4 81 2 428 7 615 11 402
46 10 402 24 116 17 303 3 184 2 47 7 39 15 298 26 210 30 122
48 8 110 14 193 16 248
319 9 24 14 310 15 325 16 36 21 242 28 34 19 193
106 9 357 8 92 13 310 12 193 16 139
55 7 149 11 298 9 164 13 325 30 114 29 537 28 134
111 14 139 12 248 13 36 18 8 19 227
53 3 432 2 246 11 303
237 16 8 19 149 22 137 23 236
272 16 227 18 149 21 25 13 193 22 125
72 23 155 25 232
184 25 126 28 317 23 79 13 242 22 93 19 25
211 18 137 21 93 23 19 19 125
214 18 236 20 155 21 79 25 219 22 19
37 32 368 3 334 11 116 26 373
156 31 279 20 232 27 181 21 126 28 80 23 219
83 24 373 32 201 11 210 33 110 41 190 30 577
263 37 297 31 229 25 181
77 15 134 29 177 34 22 35 333 31 23 21 317 25 80 13 34
124 15 537 30 69 28 177 34 393 36 145
44 11 122 26 577 15 114 41 93 29 69 42 20 40 469 36 139
128 38 109 37 101 46 61 47 69 35 242 27 229 28 23 25 279
55 24 368 33 337 26 201
60 32 337 26 110 57 154 41 0 55 267
78 29 393 39 155 36 327 28 22 35 94
328 39 140 34 94 49 76 44 106 47 228 31 242 28 333
75 29 145 42 364 30 139 39 80 34 327 43 28
297 38 157 27 297 31 101
315 37 157 46 356 31 109
158 36 80 43 80 44 220 34 155 35 140
16 52 275 41 16 51 116 48 6 42 126 45 196 30 469
23 26 190 33 0 55 308 52 191 30 93 40 16 54 181
124 43 123 45 232 36 364 40 126 30 20
121 48 46 42 123 45 121 39 80 36 28 44 108
104 48 56 39 220 43 108 53 9 49 157 58 203 35 106
144 48 312 42 232 40 196 43 121
201 38 356 31 61 47 196 59 85 50 212
332 46 196 49 280 50 210 31 69 35 228
76 51 124 40 6 45 312 53 309 43 46 44 56
99 58 223 60 98 63 97 44 157 50 30 47 280 35 76
255 46 212 59 184 70 102 49 30 63 99 47 210
98 74 49 52 192 66 146 64 87 48 124 40 116 62 232 53 84
27 41 191 40 275 51 192 62 158 54 73
77 51 84 48 309 56 5 64 287 44 9 58 118
48 55 98 57 108 52 73 41 181 65 286 62 56 67 21
54 33 267 57 190 41 308 54 98
319 53 5 64 118 58 181 66 121 72 226 73 97 82 32
31 81 76 33 154 55 190 67 45 54 108
313 56 181 53 118 72 123 49 223 44 203 60 54
445 88 182 46 85 84 437 50 184 70 250
417 72 2 49 98 58 54 76 184 75 46 63 204
393 103 79 112 0 93 97
76 74 228 52 158 51 232 65 81 71 153 54 56
447 70 219 49 97 60 204 50 99 75 52
113 51 87 56 118 53 287 66 240
156 62 81 71 134 54 286 69 91 67 106
164 74 0 51 146 68 4 56 121 64 240 73 309
75 81 243 89 108 87 40 57 45 65 106 54 21 69 224
69 74 177 66 4 73 355 91 233 94 230 82 31
68 87 149 86 10 65 91 71 261 67 224
477 59 250 50 102 63 219 84 241 75 76
201 74 162 86 80 65 134 62 153 69 261
284 85 209 56 226 82 56 76 104 60 2 58 123 80 23
256 68 355 56 97 66 309 82 92
279 66 0 68 177 51 49 86 186 71 162 62 228 91 174
142 70 76 84 34 60 46 63 52 77 62 76 35 78 107
263 72 104 60 184 80 80 77 16 75 35 79 22
405 75 62 76 16 79 57 78 10
674 90 20 92 94 85 125 84 159 80 79 83 21 77 10 75 107 79 19
485 80 21 83 35 77 57 76 22 78 19
585 85 79 72 23 78 79 76 80 83 21 79 21
264 99 58 57 76 89 208 67 243
83 90 182 92 26 68 31 94 219 85 17 56 32 72 56 73 92
587 80 21 78 21 79 35
112 96 145 133 440 88 188 92 118 59 437 70 241 78 159 75 34
133 90 234 78 125 82 17 72 209 80 79
419 74 186 87 69 101 0 71 80 69 10 91 218 98 292
215 89 226 67 40 69 149 86 69 101 203 95 26 104 106
18 133 628 160 157 192 207 174 283 59 182 180 256 84 188
252 81 208 99 130 67 108 87 226 95 112
258 78 20 92 215 85 234 82 182
166 74 174 68 233 86 218 94 3 102 258 98 75
105 96 35 97 304 90 215 84 118 78 94 94 61 82 26
225 103 110 61 97 100 0
89 97 66 92 61 68 230 91 3 113 19 106 240 82 219 102 32
465 89 112 99 175 109 106 105 11 87 26 110 53 104 40
634 97 302 92 35 108 342 136 15 133 292 84 145
795 96 302 108 32 92 304 118 1 106 176 94 66
321 101 259 86 292 91 75 102 3 107 57 141 34 119 93 122 238
646 81 58 89 130 105 100 95 175
474 111 0 103 121 114 44 93 0
753 87 203 86 0 104 162 107 135 98 259
165 91 258 113 247 125 89 94 32 135 66 98 3 122 214
617 116 186 112 3 61 79 114 35 100 121 93 110
314 87 106 95 40 101 162 115 24 107 52 110 158
286 111 68 129 105 99 100 109 127 127 141 95 11
288 97 176 113 302 118 170 94 240
50 101 135 123 138 115 43 121 72 104 52 119 17 98 57
218 96 342 136 163 97 32 118 246 139 166
824 105 127 127 44 110 148 95 106
1729 109 148 95 53 127 38 115 29 117 101 104 158
533 140 174 100 0 114 185 129 105 105 68
375 116 188 103 3 61 0 132 133 148 48 126 82
309 102 247 125 146 118 44 106 302 94 19
1478 140 142 111 185 116 180 103 35 100 44 151 59 126 91
1410 120 108 128 39 117 175 121 3 107 43 104 24 110 29
381 103 186 112 188 114 180 126 131
770 138 70 127 112 134 64 115 175 128 4 110 101
137 108 246 97 1 139 9 137 232 113 44 125 58 106 170
1000 130 37 142 71 123 113 107 17 141 107 143 141 98 93
1564 130 3 123 43 115 108 128 45 121 61
756 123 16 115 3 120 61 107 72
212 102 214 135 102 141 256 145 45 98 238
1443 130 61 119 113 107 138 120 43 121 16
100 147 35 131 179
254 137 99 113 146 118 58 135 183 102 89
294 116 131 112 82 114 91 151 189 156 45 148 313
220 129 205 109 44 105 141 134 58 110 38 117 112
1619 144 53 138 42 130 53 142 37 115 39 120 45 117 4
480 140 150 111 105 159 52 134 154 127 205 105 105 155 114
1007 123 61 119 37 142 23 128 53 120 3
127 132 130 147 117 124 179 146 106
274 112 133 153 96 148 205 131 130 158 41 146 177
74 96 292 136 249 84 440 88 628 160 103
475 129 154 138 89 127 58 161 11 150 87 155 194 117 64
60 137 27 125 183 102 66 154 50 122 102 145 207
514 96 15 133 249 160 390 108 163 167 7 139 282
92 139 127 118 232 125 99 135 27 164 34 154 219
1013 149 96 144 46 150 139 134 89 128 42 117 70
1036 136 282 108 166 167 53 118 9 137 127 164 259
617 129 150 159 198 111 174 151 211 114 142
255 162 55 143 180 119 107 145 16 152 202 122 256 157 66 98 34
769 144 57 130 23 128 37 143 0 119 71
509 149 153 144 50 150 6 142 0 141 180 162 178 119 141
1313 149 66 128 53 138 46 143 50 142 57
119 154 75 163 55 135 207 141 16 152 188 122 45
209 132 177 147 198 131 106 158 170
137 131 117 124 35 146 198 158 68
548 112 48 126 313 153 179 132 205 156 64
995 144 66 143 153 138 96 150 95
763 149 95 138 139 161 113 165 131 162 16 143 6 134 87
1240 140 211 114 59 126 189 156 148 168 135 159 129 176 15
279 163 212 141 202 145 188 157 66
175 156 220 171 71 175 62 158 251 148 179 132 96
219 137 219 164 159 166 105 135 50 163 201 145 75
255 129 114 159 70 161 121 134 194 169 256
268 126 45 153 220 148 64 151 148 171 172 176 234
592 177 178 179 146 163 241 141 66 162 266 152 66
313 153 251 175 300 132 41 147 68 146 170
1063 140 198 129 52 168 181 151 129 173 97 155 70 169 104
285 133 103 174 324 88 157 136 390 167 268
387 165 162 150 113 155 121 134 11 170 82 169 17
162 172 146 165 152 150 16 179 53 141 55 143 178 157 266
719 166 142 177 72 185 76 154 201 152 212 157 241 145 55
218 167 64 139 259 137 34 166 297 154 159
843 172 154 161 162 162 152 150 131 170 95
441 188 83 167 217 164 297 185 378 163 142 154 105
115 188 365 160 268 174 58 136 7 166 217 139 53 164 64
1260 173 214 182 71 151 135 159 181 176 182
171 173 114 159 104 178 100 161 17 155 256 170 167
227 178 241 172 78 181 8 161 82 165 95 169 167
825 153 71 175 139 156 172 183 192 176 72
1176 184 202 179 46 162 146 181 128 165 154 170 78
623 168 214 182 262 159 97 178 53 169 114
277 188 235 160 324 192 397 199 242 88 283 167 58
187 153 62 158 300 187 396 183 106 171 139
162 156 234 171 72 168 182 151 15 195 170 183 84 182 59 194 41 186 86
667 157 178 179 191 190 223 185 267 163 72
177 173 53 196 42 182 119 181 229 169 100 189 156 170 241
445 184 172 191 54 172 46 177 191 162 53 190 53 157 146
748 226 62 192 336 215 177 88 256 220 146
1040 184 72 191 97 205 15 196 274 178 229 172 128 170 8
688 168 71 173 262 178 119 176 59 189 163 186 201
115 175 106 171 192 187 132 195 146 201 144 176 84
1319 179 172 172 202 191 164 181 72
927 188 92 209 284 213 33 166 378 177 267 190 183 163 76
1011 182 201 176 86 193 123 189 8 194 179
432 175 396 197 443 183 132 201 116
67 199 217 174 235 185 92 166 83 167 365
1217 196 28 182 163 206 37 178 156 200 49 193 69 186 8 198 17 210 169 202 10 203 1
1381 209 262 207 300 191 5 177 223 179 53 185 183
660 207 220 184 164 190 5 205 87 179 54 181 97
618 199 398 174 397 215 493 180 336 216 249 88 207
1002 186 123 189 69 198 71 194 17
1287 195 208 201 107 212 135 176 41 193 17 186 179 198 65 204 133 202 59
592 201 312 194 208 176 170 183 146
1025 205 241 206 212 181 274 178 42 189 28
435 217 347 214 141 201 21 187 443
1089 200 85 193 71 189 17 202 17 194 65
103 188 217 192 398 174 242 216 79
952 198 85 189 49 202 88
985 214 268 197 21 187 116 195 312 218 140 183 144 212 102 194 107
853 200 88 198 17 194 59 189 10 204 97 203 59
1134 189 1 202 59 208 13 210 43 204 20
1153 212 33 211 32 206 172 194 133 202 97 208 21 210 41 203 20
1108 207 256 191 87 196 241 181 15
985 196 212 211 326 189 37 204 172 210 193
1140 209 156 191 220 190 300 205 256
783 210 26 204 21 203 13
1467 207 156 190 262 185 284 219 529 213 92
1208 206 193 189 169 208 26 204 41 203 43
776 212 367 206 326 204 32
1260 201 102 222 208 218 63 224 270 211 367 194 135 204 33
957 209 92 219 360 185 33
514 223 10 217 265 218 331 221 154 197 141 201 268
176 192 493 220 550 180 177 216 301
272 192 249 199 79 215 301 230 270 220 110
811 223 324 214 265 197 347
1406 214 331 201 140 221 29 222 312 225 179 212 63
829 209 529 213 360
485 226 366 215 550 230 21 180 146 216 110 227 324
325 223 250 214 154 231 114 232 186 229 140 218 29 225 62
322 212 208 218 312 224 218 225 45
430 217 324 214 10 221 250 229 240
631 222 218 212 270 225 394
1091 231 536 221 62 222 45 218 179 224 394
95 228 208 180 62 220 366 233 90 227 163
137 226 163 230 425 220 324 233 382
190 226 208 234 256 233 263
559 223 240 221 140 232 25 235 155
225 220 21 216 270 227 425 240 105 237 217 233 54
771 221 114 232 521 225 536
1330 231 521 221 186 235 538 229 25
90 228 263 226 90 236 436 234 18 230 54 227 382 237 16
183 228 256 243 124 236 413 238 334 233 18 239 157
490 232 538 229 155
241 233 436 234 413 237 389 239 230 246 16
209 249 170 236 389 246 249 230 217 240 276 248 160 245 40 233 16
90 244 17 243 388 234 334
121 243 356 247 160 236 230 234 157 246 449
112 230 105 245 267 237 276 241 189
47 240 189 242 171 245 173
364 250 311 241 171 254 248 255 325 245 220 251 123 248 4
61 244 357 238 388 234 124 247 100 239 356
221 238 17 243 357 247 261
312 240 267 237 40 242 220 241 173 248 430
369 247 266 252 152 256 203 249 245 236 16 239 449 237 249
139 258 286 244 261 243 100 256 56 246 266 239 160
82 249 272 237 160 242 4 245 430 251 294
37 252 365 251 269 248 272 237 170 246 245
459 253 338 242 311 254 50
271 252 39 249 269 242 123 255 345 248 294 259 168 262 76
243 256 375 262 190 251 39 249 365 246 152
1427 257 37 254 16 260 406 250 338 261 98
653 263 165 253 16 242 248 250 50 255 150 265 275 274 194 260 269
576 263 268 242 325 251 345 259 244 254 150
211 258 166 247 56 252 375 269 305 266 21 262 131 246 203
1681 253 37 261 317
291 269 599 256 166 247 286
225 263 176 255 244 251 168 262 245 275 104 267 150
1101 253 406 265 198 254 269 261 18
1429 257 317 253 98 264 224 265 61 260 18 270 171
541 252 190 256 131 251 76 259 245 266 360 267 9
218 259 176 255 268 254 165 274 383 275 308
1079 278 147 261 224 270 59 272 215
1649 268 91 271 125 270 175 274 3 254 275 260 198 261 61
183 256 21 269 249 276 218 262 360 267 81
133 259 150 276 333 266 81 262 9 275 352
1579 287 76 265 91 274 352 290 12 286 62 271 136 282 255 277 73
119 258 599 256 305 266 249 276 280
1492 264 59 265 175 261 171 271 84 273 10 272 177 281 22 279 82
1017 265 125 270 84 268 136 273 96 277 68
1159 264 215 278 89 270 177 289 132 281 63 285 66
710 270 10 271 96 280 27 277 1 279 96
365 263 383 265 3 254 194 275 13 286 403 268 352
773 263 308 259 104 274 13 294 198 267 352 286 148
104 269 280 266 218 267 333
873 268 73 271 68 280 53 282 3 273 1
804 291 34 292 267 264 147 295 154 289 69 272 89
702 270 82 280 6 273 96 281 90 283 16
536 283 57 282 3 277 53 273 27 279 6
1342 270 22 272 63 279 90 284 10 285 83 283 15
1396 290 58 268 255 289 108 280 3 277 3 284 11 288 138 283 44
894 280 57 279 16 284 38 281 15 282 44
326 285 18 281 10 288 37 283 38 282 11
1259 272 66 289 126 284 18 281 83 288 85
924 287 264 299 108 274 403 294 292 275 148 300 83 268 62
607 286 264 299 250 268 76 290 245 301 107
1644 289 82 284 37 285 85 282 138
943 291 42 293 293 278 69 290 61 272 132 282 108 285 126 288 82
370 293 91 298 203 287 245 301 162 289 61 268 12 282 58
106 296 126 293 243 292 222 289 42 278 34
436 291 222 278 267 295 110 296 103
478 291 243 298 217 290 91 296 25 289 293
875 297 300 275 198 286 292 300 260
1339 292 110 278 154 307 18 296 312 302 256
374 291 126 293 25 292 103 298 248 307 42 309 217 295 312
260 294 300 300 117
506 293 217 305 186 309 28 296 248 290 203 306 85 301 23
363 287 250 303 114 304 313 300 2 286 108 301 43
642 308 508 304 23 299 2 294 260 297 117 286 83
1066 298 23 287 107 303 30 306 165 299 43 290 162
476 307 359 295 256
340 304 250 310 294 305 6 306 186 299 114 301 30
1208 308 581 303 250 310 188 300 23 299 313
770 298 186 303 6 310 258 309 293 306 212
507 298 85 303 186 305 212 301 165
1425 302 359 314 226 309 341 296 42 295 18
505 310 74 315 150 304 581 300 508
358 298 28 310 119 305 293 318 172 307 341 296 217 314 261
567 308 74 303 294 304 188 305 258 309 119 315 344 318 314
290 313 369 316 123 319 97
353 316 286 324 139 330 297
264 317 209 320 197 311 369 319 83
1912 318 13 307 226 309 261 331 292 323 268 338 223
265 308 150 310 344 340 613 318 255 341 245 332 31
476 324 98 319 149 312 286 311 123
174 313 209 326 259 320 175 321 258 334 126 328 63
457 310 314 315 255 309 172 314 13 331 221 332 232
382 313 83 322 122 320 0 329 110 316 149 324 55 311 97
125 313 197 326 26 322 141 317 175 319 0
137 317 258 328 401 325 86
297 326 135 333 21 329 115 319 122 320 141
789 314 268 327 270 338 108 347 175 348 72
331 336 120 329 150 316 98 319 55 312 139 330 96
198 328 109 321 86 346 324 335 138
287 317 259 334 42 337 100 342 148 333 94 322 135 320 26
830 347 61 323 270 339 229
42 317 63 334 142 321 401 335 313 325 109
111 333 97 322 115 336 68 343 112 319 110 324 150
292 336 135 344 179 324 96 312 297 364 59 358 39 350 93
65 318 221 314 292 332 211 338 279
249 318 232 315 31 331 211 341 297 338 72
241 326 94 342 177 322 21 329 97 343 188
153 351 55 361 18 326 42 337 239 317 126 355 315 328 142 335 21
202 355 30 334 21 357 203 371 117 328 313 346 25 356 41 325 138
751 350 238 330 135 324 120 343 123 354 120 329 68
852 351 13 349 149 326 100 342 193 334 239
1439 314 223 331 279 341 136 332 72 367 477 323 108 348 18
526 327 229 347 34 353 19 345 294 352 126
191 315 613 359 533 341 31 362 316
117 340 31 315 245 386 98 362 344 332 297 367 144 338 136
211 349 82 326 148 337 193 354 12 343 25 333 177
327 342 25 333 188 336 123 354 232 329 112
136 366 173 345 95 330 179 358 206
427 366 139 344 95 353 137 375 87 339 294
74 356 178 335 25 325 324 360 258
763 327 61 323 175 339 34 348 100 352 141
599 367 217 323 72 338 18 387 31 382 2 390 2 347 100 353 197 378 137 352 220
988 351 183 354 38 342 82 363 67 337 149
146 336 238 354 22 364 234 369 183 330 93
755 334 55 361 115 373 58 337 13 349 183 363 57
676 347 141 353 17 339 126 348 220
583 345 137 375 2 379 199 339 19 348 197 378 113 352 17
63 349 38 363 91 342 12 381 201 336 120 343 232 369 157 350 22
207 361 81 365 86 334 315 357 298 335 30
120 371 113 370 156 346 178 335 41 360 33
384 374 223 380 75 365 13 355 298 371 62 335 203
80 366 226 344 206 364 327 372 130 375 30 330 39
414 388 552 340 533 389 235 362 35
252 370 184 346 258 356 33
588 351 115 373 122 365 135 334 18 355 81
294 340 316 359 35 386 138 341 344 389 420
197 377 33 351 57 373 203 349 67 354 91 381 235
72 369 163 372 68 358 327 350 234 330 59
414 384 37 373 133 380 271 361 135 357 13 355 86
117 345 139 375 308 344 173 358 226
63 386 12 341 144 376 108 382 478 338 477 348 217
80 410 131 388 496
446 381 24 354 157 397 137 383 155 364 163 350 183 372 163
284 371 209 360 184 356 156
130 391 23 374 287 357 62 370 209 335 117 356 113
176 397 138 404 122 409 73 401 267 364 68 369 163 375 93 358 130
51 384 63 377 36 351 58 363 203 365 133 361 122
248 391 218 380 119 371 287 357 223
264 393 96 401 137 366 308 385 195 372 93 358 30 353 2 345 87 379 83
107 386 267 367 108 387 139 382 300 396 228
179 384 8 398 299 381 238 363 33 373 36 383 265
937 385 99 392 80 390 214 353 113 379 124 348 137
582 385 176 353 199 375 83 378 124
280 399 125 384 107 391 104 374 119 400 12 365 271 357 75
106 377 238 363 235 354 201 383 80 369 24
159 367 478 387 243 376 300 348 2
134 377 265 398 33 403 53 381 80 397 228 402 120 369 155
179 399 318 406 74 398 359 377 8 380 107 373 63 365 37
159 393 235 375 195 392 163 378 99 379 176
374 396 393 376 267 412 590 411 89 362 138 341 98 389 54 367 12
207 348 31 382 243 390 185 395 184 376 139 396 69
176 368 496 410 134 394 101 359 552 389 20
70 394 394 388 20 359 235 386 54 412 167 362 420
569 392 235 387 185 378 214 348 2 395 221
264 400 71 405 272 380 104 374 218 371 23
265 393 106 413 328 385 163 408 96 378 80 390 235 395 189
1607 413 169 407 293 385 235 375 96 392 106 401 37
58 410 233 420 113 388 101 433 161 412 252 389 394
277 392 189 408 0 387 184 390 221 396 238
96 386 393 411 184 408 129 387 69 395 238 376 228
77 409 160 372 138 369 137 383 228 402 114
110 384 359 377 299 406 94 403 240 383 33
141 384 318 406 90 400 372 380 125
91 399 372 391 71 380 12 417 64 406 21 405 328
665 416 67 421 44 404 128 393 37 407 266 372 267 375 137
55 403 155 397 114 383 120 414 77 418 144 409 49
181 398 240 423 63 406 23 426 194 383 53 402 155 427 94 418 103
127 421 174 414 27 415 165 401 128 372 122 409 120
152 391 272 417 5 419 285 400 328
37 399 90 384 74 398 94 403 23 417 364 400 21 429 109 426 301
955 416 208 422 60 393 293 413 34 401 266
894 442 119 475 287 411 612 422 437 413 210 436 67 392 96 396 129 395 0
101 397 160 414 145 404 120 372 73 402 49
76 368 131 388 134 394 233
153 442 54 445 210 386 89 412 45 408 612 435 483 396 184
279 394 252 386 590 433 107 434 410 435 102 411 45 389 167
579 422 334 393 169 407 34 392 328 408 210
771 418 60 415 105 404 27 409 145 402 77
85 424 168 421 105 414 105 418 125 404 165
791 425 204 421 291 422 299 407 208 401 67
129 429 8 406 364 432 310 419 255 400 64 405 5
41 424 81 423 153 403 103 414 60 415 125 402 144
199 417 255 431 263 405 285 432 18
351 444 329 433 342 394 113
242 416 291 425 182 424 98 415 105 401 44 404 174
606 416 299 425 231 407 60 436 33 408 437 413 334
95 424 87 430 158 427 202 403 63 418 153
117 425 50 430 62 423 87 439 113 421 98 415 168 438 160 418 81
114 416 204 421 182 424 50 439 294 422 231 436 418
130 403 194 406 301 428 108 427 183 429 86
59 423 202 403 94 428 113 430 10 426 183
78 430 161 440 220 427 113 426 108 429 116
114 417 8 406 109 428 116 426 86 440 120 449 51 432 145 446 109 448 123
66 424 62 423 158 438 223 428 161 427 10 443 70 440 108
104 419 263 432 150 451 43 437 197
140 417 310 419 18 429 145 431 150 446 133 437 173
675 420 342 394 161 412 107 434 374 441 69 444 258 450 119
281 412 410 435 214 433 374 441 277
67 445 248 412 102 411 483 434 214 447 67 441 170
89 475 329 425 418 422 33 482 32 408 67 439 50 461 208 455 265
29 432 173 431 197 452 16 446 154 451 291
129 424 160 439 135 430 223 443 157
115 425 294 424 113 438 135 436 50 443 199 455 39
49 428 220 430 108 443 106 453 66 429 120 449 259
346 435 170 434 277 447 249 433 69 450 181
196 487 306 475 397 408 119 411 54 445 240 497 18 483 130 468 185
294 438 157 430 70 456 201 440 106 453 25 439 199 466 47 455 179
700 420 329 501 330 433 258 459 459 450 147
268 442 240 411 210 435 248 447 214 462 27 468 336
47 429 109 432 133 452 172 448 124 437 154
1084 445 214 435 67 441 249 462 39 450 42 460 75 463 122
90 449 166 429 123 458 152 452 88 446 124 454 39
52 440 259 453 192 429 51 458 181 448 166
572 441 181 444 147 433 119 447 42 459 152 460 88 457 100
117 431 43 465 175 452 103 454 132 437 291
65 448 88 446 172 454 215 451 103 437 16
142 456 272 440 66 467 243 443 25 476 25 449 192 458 65
78 458 85 470 234 465 95 452 215 448 39 451 132
375 436 265 443 179 439 39 466 207 461 106 471 13
99 443 201 453 272 476 82 469 75 466 170
841 450 100 464 79 460 38 459 74
41 467 89 453 65 449 181 480 202 448 152 470 93 454 85
533 501 82 510 112 474 54 473 355 444 459 450 152 464 42 457 74 462 225
505 447 75 450 88 464 40 463 54 457 38
452 436 208 455 106 482 339 471 120 478 92
548 445 27 473 60 472 282 468 0 447 39 464 39 463 196 459 225
1102 447 122 464 77 462 196 460 54
578 463 77 460 40 457 79 462 39 459 42
44 470 122 493 210 485 11 451 175 454 95
744 456 170 443 47 469 115 455 207 471 111
48 492 207 494 34 476 111 453 243 458 89 480 37
138 442 185 445 336 481 67 483 46 472 192 462 0
161 456 75 489 6 476 101 466 115 490 104 479 13 471 22 477 25
37 480 63 458 93 485 208 465 122 454 234
631 466 111 455 13 461 120 479 71 478 80 469 22
753 473 108 481 268 488 33 462 282 468 192
779 474 304 502 168 459 355 462 60 488 282 472 108
455 510 393 514 209 513 132 459 54 502 325 473 304
301 442 397 497 309 408 287 491 344 482 239 436 329
116 456 82 467 111 453 25 489 121 469 101 494 102
674 490 91 486 20 479 56 478 69 469 25
668 461 92 482 25 486 114 479 18 471 80 477 69
719 478 18 471 71 477 56 469 13
112 467 37 492 198 496 111 495 239 458 202 470 63 485 168
489 483 259 488 137 472 268 468 67
135 475 239 498 15 491 294 436 32 461 339 486 105 478 25
197 487 139 484 156 442 130 481 259 488 32 468 46
330 487 204 507 186 488 262 483 156 497 123 504 83
45 480 168 470 208 493 194 495 68 465 11
387 498 174 489 199 499 85 482 105 490 105 478 114 477 20
170 484 204 497 288 442 306 483 139
444 502 289 484 262 507 122 473 282 481 137 483 32 472 33
317 490 77 469 6 476 121 486 199 494 199 499 152 496 28 503 12
443 489 77 469 104 486 105 477 91
253 497 165 475 344 498 429 482 294 506 167
173 467 207 480 198 496 189 494 135
31 495 94 500 17 485 194 465 210
92 467 34 492 135 489 199 476 102 496 191
210 496 33 480 239 493 94 500 277 485 68
107 505 201 492 189 489 28 494 191 503 193 495 33 480 111
90 487 288 484 123 442 18 475 309 491 165 504 481 506 55
129 499 317 511 215 506 175 491 429 486 174 482 15
79 498 317 508 355 517 118 511 66 489 152 486 85 503 6
82 493 17 495 277
109 518 61 515 314 444 330 510 514 459 82
749 474 325 523 295 513 33 507 64 488 289 473 168
45 508 185 505 226 509 170 489 12 499 6 496 193
90 484 83 507 285 519 97 525 209 522 36 497 481 506 37
142 503 226 496 201 509 12 512 159
83 530 171 522 172 497 55 504 37 498 175 491 167 527 210 533 109 511 122
112 502 64 523 169 484 186 488 122 519 307 504 285
350 517 118 509 225 499 355 503 185
372 508 225 517 38 524 115 505 12 503 170 526 98 512 153
114 515 166 501 514 514 132 459 112 474 393
135 498 215 546 60 517 313 529 15 527 207 506 122 499 66 534 110
138 505 159 509 153 526 111 520 271
529 474 132 502 33 523 283 532 179 543 124 514 266
218 515 186 510 132 474 209 532 31 521 126 513 266
70 518 133 538 154 501 314 510 166 521 204 514 186
39 528 266 520 90
109 508 118 511 313 529 130 499 118 509 38 524 264
197 540 123 538 385 515 133 501 61
132 507 307 525 362 504 97
182 512 271 526 112 528 233 535 53 516 90
407 538 27 515 204 545 319 532 241 541 10 514 126
107 525 498 530 349 531 99 504 36 506 172
383 502 295 543 37 513 283 507 169
75 517 264 529 85 536 208 509 115 526 102
62 519 362 531 5 504 209 522 498
104 542 62 536 204 524 102 509 98 512 111 535 211 520 112
104 506 210 511 207 534 193 533 97 537 10
42 535 193 516 266 520 233
75 548 148 546 262 517 130 542 209 511 15 536 89 524 85
130 539 20 533 228 531 72 522 349 506 171
133 525 5 530 72 522 99 552 105 557 6 539 239
281 541 146 521 241 543 185 513 179 514 31
101 530 228 539 17 527 97 506 109 537 224
75 546 254 549 37 547 57 527 193 511 110 537 130
210 551 335 542 0 526 211 528 193 520 53
322 529 89 542 167 524 208 526 204
88 539 114 547 189 527 10 534 130 533 224
308 518 385 540 154 515 154 521 27 544 91 545 167
145 530 20 549 10 552 86 531 239 554 130 533 17 547 61 537 114
505 518 123 538 154 560 213 544 208 553 7
59 545 27 553 385 556 11 532 146 521 10 543 306
74 555 63 548 83 551 316 559 109 529 209 535 0 536 167 526 62
93 523 37 532 185 541 306 513 124
563 538 91 540 208 545 215 553 188
535 538 167 544 215 521 319 553 54 541 27
119 548 216 550 83 529 262 511 60 549 28 534 254
563 549 213 539 61 534 57 537 189
112 555 356 561 164 542 83 529 148 550 112 546 216
377 550 167 546 28 554 91 539 10 547 213 534 37
143 561 198 548 112 558 37 554 127 546 83 549 167
45 542 316 559 198 535 335
113 539 86 531 105 557 242 558 226 554 4 562 34
139 540 7 560 169 544 188 545 54 556 227 541 385
116 550 127 549 91 552 4 558 125 539 130
161 564 346 563 10 561 159 559 276 542 63 548 356
246 560 210 553 227 541 11
36 552 242 531 6 562 138
116 561 144 550 37 552 226 562 123 554 125
393 564 119 565 103 555 276 551 198 542 109
108 540 213 556 210 553 169
56 563 133 555 159 562 237 548 164 558 144 550 198
70 563 416 561 237 552 34 557 138 558 123
131 570 183 564 94 566 313 562 416 561 133 555 10
122 567 60 565 282 566 277 559 119 555 346 563 94
108 569 267 564 282 568 144 567 31 559 103
105 570 180 564 277 563 313 567 206
232 570 229 569 324 564 60 565 31 566 206 574 120 572 37 571 33
87 569 181 565 144 571 165 573 62
60 568 181 565 267 567 324 571 206
119 572 332 563 183 566 180 567 229
52 569 206 574 231 567 33 568 165 573 197 575 52
35 570 332 574 404 567 37
126 571 197 568 62 575 244
200 567 120 572 404 571 231 575 106
76 574 106 571 52 573 244
