84 214 11
154 2 58 5 22 8 22 14 9 16 17 26 72
255 1 58 8 29 10 27 26 30 72 193 75 96 78 4
193 75 8 11 52 15 27 17 40 76 19 77 60
1438 5 15 8 11 16 18 10 26 12 11
859 1 22 4 15 8 19 16 9
722 15 30 76 16 7 10 79 25
156 75 27 78 41 15 4 77 16 12 36 6 10 79 22
1388 1 22 2 29 5 19 4 11 10 34
202 17 42 24 125 73 80 74 44
772 2 27 8 34 4 26 12 14 78 64
31 3 52 15 29 17 57 18 70 20 5 23 39
41 16 1 10 14 78 1 15 25 4 11 7 36 19 43 25 54
423 17 15 24 84 23 60 21 42
138 1 9 16 25 22 16 25 9 26 34
77 3 27 11 29 6 30 7 4 12 25 19 2 20 52 76 5
344 1 17 5 9 14 25 4 18 12 1 25 26
72 3 40 11 57 9 42 13 15 23 36 24 6 74 44
55 11 70 20 44 23 13 27 16 31 72
187 15 2 12 43 20 60 25 17 34 20 38 48
11 11 5 15 52 18 44 19 60 31 6 38 20
445 24 13 23 45 13 42 27 24 29 87
62 14 16 26 25 25 53 32 65 34 12 37 1
202 11 39 17 36 18 13 13 60 21 45 27 37
76 17 6 9 125 13 84 21 13 29 18 33 99
473 14 9 16 26 12 54 19 17 22 53 34 15
221 1 72 2 30 14 34 22 25 37 72
74 18 16 23 37 21 24 29 28 31 51 48 8 49 75
150 30 87 43 65 47 15
325 24 18 21 87 27 28 33 3 36 48 39 56 48 17
94 33 99 28 87 47 54
78 18 72 20 6 27 51 38 51 49 44
148 22 65 34 69 37 89
76 24 99 29 3 30 99 36 70 47 21
75 19 20 25 15 22 12 32 69 37 28 38 44 40 22 45 103 53 8
1260 48 31 36 50 39 45 46 55
83 29 48 33 70 47 50 35 50 39 27 44 9 46 3
129 26 72 22 1 34 28 32 89 40 124
107 20 20 19 48 31 51 34 44 45 55 49 10 54 19
514 29 56 48 16 36 27 35 45
187 34 22 37 124 53 62
742 47 13 44 61 42 52 50 19 51 3 52 56 57 29
365 43 59 47 45 41 52 57 52
240 28 65 42 59 47 23 57 50
449 47 50 36 9 46 63 41 61 51 74
97 34 103 38 55 53 43 54 119 55 15
350 48 42 36 3 35 55 44 63 51 25 56 35
84 33 21 28 15 30 54 43 23 36 50 41 13 42 45 44 50
172 27 8 29 17 35 31 39 16 46 42 49 58 56 68
71 27 75 31 44 38 10 48 58 54 93 56 58
39 41 19 52 65 57 66 61 42 66 30
130 46 25 44 74 41 3 52 72 56 38 66 17 67 73
98 41 56 50 65 51 72 66 112
65 34 8 40 62 45 43 55 111 69 16
62 38 19 49 93 45 119 55 43 56 33 65 99 67 70
459 45 15 53 111 54 43 65 93 69 25
377 48 68 49 58 46 35 54 33 51 38 67 125
155 43 50 41 29 42 52 50 66
206 67 149 65 86 59 113 81 25 82 58
263 65 27 58 113 62 26 63 16 81 108 83 124
1005 61 43 64 35 80 79
151 50 42 60 43 64 52 66 80
145 65 58 59 26 63 68 68 50
1068 59 16 62 68 83 160
1290 61 52 66 16 60 35 80 54
149 54 99 55 93 67 14 69 31 58 86 59 27 62 58 68 29
257 50 30 51 17 52 112 61 80 64 16 67 37 80 7 82 91
365 54 70 51 73 56 125 66 37 58 149 65 14 82 99
153 69 48 65 29 62 50
189 53 16 55 25 65 31 68 48
20 74 18 71 6
38 73 85 74 52 70 6
93 2 193
31 9 80 71 85 74 28
77 17 44 9 44 73 28 70 18 71 52
189 2 96 3 8 7 27 77 52 78 48
157 3 19 15 5 6 16 77 13 79 1
58 75 52 3 60 76 13 7 16 79 22
119 2 4 10 64 75 48 7 41 12 1
73 76 1 77 22 6 25 7 22
714 66 7 82 125 60 79 64 54
115 58 25 59 108 83 67 84 188
741 66 91 67 99 58 58 80 125
1350 59 124 81 67 63 160
146 81 188
