284 767 11
178 34 214
68 3 450 5 276 4 160
130 2 450 4 185
419 3 185 8 249 5 79 6 100 2 160
107 6 44 4 79 10 309 2 276
308 11 177 12 118 8 300 5 44 13 103 4 100 10 177
145 12 222 8 242 15 122
101 12 87 4 249 7 242 6 300
193 11 195 10 165 13 119 14 382
570 11 184 5 309 6 177 9 165
132 13 247 6 177 9 195 10 184
748 13 179 6 118 8 87 16 69 15 326 7 222
107 11 247 12 179 6 103 9 119 19 0 14 55 16 54 21 275
345 9 382 19 414 13 55
146 12 326 7 122 17 94 18 257 16 89
134 12 69 15 89 18 240 13 54 21 152 25 80 24 217
368 15 94 18 247 22 217
284 15 257 17 247 16 240 22 40 25 12
413 23 56 20 336 14 414 21 198 13 0
341 26 14 19 336 28 415 23 171 35 235
192 19 198 13 275 16 152 23 263 24 129
442 18 40 17 217 25 188 30 200
107 26 274 19 56 20 171 21 263 27 93 24 6
125 16 217 21 129 23 6 29 42 27 201 25 84
177 18 12 16 80 22 188 29 193 24 84 30 72
574 39 66 33 162 23 274 20 14 27 193 35 242
114 26 193 23 93 29 179 33 10 24 201
271 20 415 35 108 36 404 42 2
156 27 179 33 158 31 96 24 42 25 193 32 45 30 11
755 22 200 29 11 25 72 32 270
573 41 204 38 200 29 96 33 162 32 445
388 29 45 31 445 30 270
324 26 162 39 268 38 127 47 49 29 158 27 10 31 162
486 1 214 46 310 42 209
464 26 242 39 113 20 235 37 319 28 108 36 36 40 32
526 35 36 40 323 43 21 28 404 42 153
75 39 216 35 319 49 40 40 54 44 329
201 50 217 41 64 31 200 33 127 51 19 47 150
153 26 66 33 268 49 121 37 216 35 113 47 254
253 35 32 37 54 36 323 44 60 43 277
269 50 166 54 119 55 278 31 204 38 64 51 135
201 34 209 43 36 36 153 28 2 48 141 56 229 46 85 59 56 58 0
219 40 277 36 21 44 92 48 274 42 36
221 37 329 40 60 43 92 53 125 49 303 48 197
231 76 42 46 1 57 207 70 51 66 45 77 305
667 34 310 42 85 45 1 59 135 57 345
293 39 254 38 150 52 244 49 8 60 7 51 79 33 49
406 43 274 53 60 44 197 42 141 58 234
285 39 121 63 249 37 40 47 8 60 251 53 105 74 44 44 303
102 41 166 38 217 51 88
297 50 88 41 135 38 19 52 50 47 79 54 159
355 47 244 60 233 65 65 51 50 54 139 62 31
102 79 176 84 193 58 330 85 83 74 114 49 105 44 125 48 60
529 41 119 52 139 51 159 64 146 62 135 55 64
402 41 278 75 254 64 51 67 305 54 64
226 42 229 59 240 58 260
268 46 345 59 49 45 207 66 178 61 51
91 72 66 53 330 79 11 48 234 56 260 42 0 59 72
221 72 36 56 240 42 56 58 72 46 135 69 38 57 49 61 193
136 63 35 52 233 47 7 49 251 65 158
252 59 193 57 51 69 29 70 111 66 37 71 175
390 78 51 52 31 65 121 64 177 68 11 54 135
410 74 209 73 182 49 249 65 139 60 35
547 67 201 68 50 62 177 55 51 54 146
115 78 118 63 139 73 62 52 65 60 158 62 121
608 57 178 70 135 61 37 45 45
75 75 32 64 201 55 305 68 249
354 80 51 75 218 78 298 64 50 67 249 62 11
63 72 105 83 240 59 38 77 41 61 29 71 256
170 61 111 66 135 77 69 45 51 71 30
875 69 256 70 30 61 175 77 128
841 82 25 83 360 79 450 58 66 59 36 69 105
181 80 40 81 129 78 213 63 182 74 200 65 62
153 81 98 63 209 73 200 53 114 85 378 49 44
290 80 169 55 254 96 168 90 225 68 218 67 32
154 87 143 100 127 82 201 83 311 45 42 77 269
118 76 269 83 18 69 41 70 69 45 305 71 128
217 80 187 73 213 68 298 65 118 62 51
461 82 47 72 450 53 176 84 357 58 11
286 90 260 75 169 81 292 73 40 68 51 91 34 78 187
343 80 292 73 129 91 130 88 183 85 33 74 98 89 81
103 92 120 86 210 88 18 98 4 93 298 87 357 84 77 79 47 76 201 83 94 72 25
215 82 94 76 311 72 360 77 18 69 240
727 86 388 82 77 53 193 79 357 85 84
59 81 33 86 211 88 182 53 83 84 84 74 378
850 82 210 84 388 88 272 85 211
643 102 10 93 116 100 404 101 69 82 357 76 143
306 81 183 92 334 89 60 86 272 85 182 82 18
295 81 81 92 178 91 126 94 161 88 60
268 80 260 75 225 96 233 91 85 99 84 95 185
144 80 34 90 85 81 130 89 126 97 5 95 319 94 237
171 82 120 98 205 88 334 89 178 94 46
689 102 224 114 117 109 98 97 83 98 250 87 116 82 298 105 42
423 92 46 89 161 97 72 91 237 98 252
106 90 185 99 314 97 103 91 319 107 5
320 75 168 111 110 103 301 90 233 99 238 107 173
412 91 5 94 72 95 103 98 328 93 83 105 425 107 73 113 64
334 92 205 97 328 94 252 82 4 93 250
168 96 238 90 84 107 331 95 314
466 87 404 101 402 76 127
397 102 17 87 69 100 402 104 505
566 101 17 87 10 93 224 104 352 117 112 109 335
116 111 195 106 77 116 277 96 301
513 102 352 101 505 117 147
888 114 317 115 81 97 425 93 42 113 119
207 103 77 108 46 127 69 116 193 119 224
338 111 233 118 271 96 173 99 331 97 73 95 5 113 65
256 133 194 110 218 127 335 106 46
1198 102 335 121 355 114 35 115 50 93 98 117 140
318 112 275 132 121 108 218 133 82
671 126 107 124 273 123 138 118 89 107 233 116 69 103 195 96 110
255 120 273 135 117 110 275 132 260
308 125 249 118 222 122 203 115 129 131 48 97 64 105 119 107 65
860 105 317 93 117 115 352 109 35
761 121 57 122 363 114 352 113 129 105 81 109 50
169 111 69 103 277 106 193 136 128 124 84 119 263
755 102 112 121 89 128 315 109 140 104 147 140 4
194 125 57 111 89 123 133 107 271 113 222
151 127 32 106 224 136 72 116 263 130 419
177 135 286 112 273
1069 128 334 122 21 115 57 109 355 117 89
661 121 21 128 76 131 17 113 203 115 363 129 435
155 125 183 111 138 126 185 118 133
600 139 135 111 273 126 178 158 160 136 290 116 84 143 50
159 131 243 113 249 118 57 123 183 126 22
94 139 204 125 22 111 107 131 102 124 178 123 185
237 138 172 108 335 133 196 130 280 119 32 106 69
1008 121 334 140 320 117 315 137 25 129 215 122 76
604 128 215 122 435 131 193 137 375 145 13
298 138 98 127 280 136 75 134 223 119 419
342 148 340 139 78 125 243 126 102 122 17 113 48 162 15 129 193 145 69
193 112 260 135 111 156 71 141 307 110 121 142 41 133 178
164 141 232 138 42 132 178 108 194 127 196 110 82
93 138 159 147 155 136 203 130 223 159 38 144 58
275 120 286 112 117 156 280 132 111
197 144 174 134 203 143 90 124 290 116 128 119 72 130 75
1017 128 25 129 375 140 230 157 17 145 175 153 166
61 141 111 167 101 165 295 134 159 130 98 127 172 146 15 147 208 133 42
766 148 86 131 78 126 204 158 198 154 180 124 135
878 128 320 137 230 117 4 169 218 157 71 150 134
82 132 307 142 74 146 361 138 111 133 232
103 156 327 141 74 132 41 181 101 146 169
610 158 269 136 90 124 50 171 155 177 5 144 133 164 47
368 136 174 134 58 143 133 161 67 164 54 159 71
680 131 69 129 13 137 175 162 229 180 167 170 134 153 35
377 141 361 138 15 181 131 142 169 165 179
325 138 208 167 171 134 155 159 174
488 139 86 131 340 162 96 155 247 154 69
1191 183 41 169 24 179 74 152 81 150 3
693 169 139 140 134 149 3 152 39 157 41 151 37
456 152 36 150 37 157 13 173 32 174 16 163 9
426 149 81 179 0 174 38 150 39 151 36
707 137 166 145 35 170 110 168 33 157 43 163 12
327 148 69 139 180 158 22 160 94 155 24 175 159 172 115
243 148 247 160 119 154 24 162 124 172 61
328 135 280 142 327 132 71
610 137 17 153 43 140 71 150 41 163 55 151 13
416 139 198 154 22 124 160 175 22 177 263 143 269
439 147 174 134 38 167 41 161 6 144 71 166 148
187 154 94 155 119 172 90
642 164 119 144 67 166 130 159 6
527 148 96 155 124 131 15 145 229 172 146 180 112 185 231
399 153 12 157 55 173 17 168 40 151 9
232 167 21 171 202 188 5 143 47 161 119 144 54 166 70
121 190 233 138 295 181 105 184 56 146 179 167 73
616 167 103 161 130 164 70 159 148
554 190 156 138 101 165 73 199 178 147 171 188 236 159 41 164 21 166 103
534 176 8 170 32 153 33 173 27 174 23 163 40
490 183 35 186 194 140 218 149 24 150 139
719 145 134 176 88 168 32 180 0 153 110 178 3
321 188 106 194 68 164 202 191 77 143 155 177 57
325 160 90 154 115 155 61 175 151 162 146 193 78 185 68
564 168 27 174 16 151 32 163 17
849 176 56 152 38 182 10 179 12 173 16 168 23 151 16
527 192 283 158 22 154 159 172 151 196 69 177 115 193 228
540 168 8 174 56 170 88 182 0 178 99
472 192 200 158 263 175 115 171 57 191 146 143 5
748 176 99 170 3 187 106 182 43 180 134
783 183 18 149 74 152 0 187 30 182 54 174 12 189 8
789 145 167 170 0 162 112 185 76 195 87 198 60 187 2 178 134 189 42
79 184 118 142 101 146 131 165 105
884 176 0 187 57 178 43 174 10 179 54
721 169 35 186 149 149 41 179 18 189 137
133 190 198 181 118 165 56
887 202 109 162 231 193 135 172 68 201 56 203 8 180 76 195 159
745 183 149 169 194
679 178 106 182 57 179 30 189 168 180 2
518 199 209 197 94 167 236 171 106 194 149 164 5
774 183 137 198 200 187 168 179 8 180 42
264 167 156 165 233 184 198
357 197 121 192 129 171 77 194 178 177 146
225 206 75 200 33 197 79 196 105 175 283 177 200 191 129
587 175 228 196 165 202 207 172 78 185 135
186 197 105 171 68 188 149 191 178
365 201 209 185 159 198 222 180 87
759 206 56 192 105 208 398 175 69 203 158 202 89 193 165
216 200 279 199 99 192 79 188 94 194 105 191 121
1109 210 163 201 7 195 222 204 74 180 60 189 200
665 209 306 200 30 212 77 167 178 197 99 188 209
132 209 105 206 262 211 54 199 30 197 279 192 33
388 203 69 205 156 185 56 195 209 204 68 198 7
629 196 89 203 230 193 207 185 109
605 208 162 207 86 216 36 196 158 202 230 201 69 204 38 205 264 185 8
599 210 175 207 205 201 68 203 38 205 262 198 74
846 201 156 203 264 204 262
200 215 27 214 267 211 95 200 262 208 34 196 56 192 75
860 213 224 221 207 210 86 216 201 204 205 203 86
435 217 90 206 34 214 169 220 8 218 162 225 45 216 217 196 398 203 162
97 199 306 212 200 200 105 211 212
623 213 188 207 86 198 163 204 175
191 209 212 206 95 212 49 215 167 200 54
69 209 200 211 49 215 191 224 300 199 77 222 136
909 221 195 207 224 210 188
190 217 200 206 267 208 169 215 145
105 217 30 206 27 214 145 211 167 212 191 219 128 222 100
267 231 63 221 66 225 315 208 217 207 201 229 82 230 372 203 36
351 208 90 214 200 218 161 219 111 215 30
221 217 161 220 243 208 162 219 18
470 217 111 215 128 220 138 218 18 227 72 222 64 223 19
659 219 138 218 243 208 8 225 272 223 54
127 213 195 207 207 216 66 226 382 230 118
48 215 100 212 136 224 207 227 266 219 64 228 172
580 231 18 220 54 225 241 227 191 219 19 233 154
93 212 300 228 288 222 207
41 231 156 220 272 208 45 216 315 223 241
298 221 382 232 409 230 161
69 219 72 223 191 222 266 233 142 228 21
270 241 278 238 257 224 288 227 21 222 172 233 155
372 231 173 216 82 234 17 235 110 237 164 230 62
228 221 118 226 161 232 80 216 372 234 22 235 130 229 62 236 119
133 240 236 238 68 237 77 225 156 216 63 233 124 223 18 229 173
702 239 346 226 409 236 89 230 80
84 238 167 231 124 227 142 223 154 228 155
327 235 114 229 17 236 137 237 3 230 22
594 234 114 230 130 229 110
395 239 158 232 89 234 137 237 209 230 119
336 242 55 239 44 243 246 240 106 231 77 234 3 229 164 236 209
238 242 144 241 110 240 149 228 257 233 167 231 68
322 244 246 243 235 232 346 237 44 236 158
189 242 290 238 149 237 106 231 236
390 242 378 249 430 245 179 238 110 228 278
318 245 83 241 378 243 73 238 144 240 290 237 55
490 242 73 239 235 245 135 244 146 237 246 246 242
148 239 246 243 146 247 343 246 64
64 242 83 249 321 250 19 241 179 243 135 248 132 246 171
267 245 171 243 242 247 10 248 197 244 64
307 248 73 251 323 244 343 246 10
304 250 215 245 132 247 73 251 82 246 197
377 241 430 245 321 250 231 255 253
197 249 231 254 194 245 19 248 215 251 196 255 200 253 74
149 254 58 250 196 247 323 248 82 252 211
399 254 253 253 52 251 211 256 172
176 254 288 250 74 256 115 252 52 255 70 257 227
121 253 288 252 253 250 194 251 58
139 249 253 250 200 253 70 268 29 265 233 264 123 257 39 258 154
366 253 115 252 172 259 40 260 266 257 54
181 253 227 255 39 259 42 260 11 256 54 261 210 258 28
530 255 154 257 28 264 97 262 163 261 34 266 62
271 260 48 256 40 257 42
481 271 15 259 48 256 266 263 193 261 200 257 11
103 260 200 257 210 262 346 258 34 263 19
672 258 163 261 346 266 121 263 66 269 106 267 26
357 272 225 275 62 271 476 277 0 260 193 262 66 261 19 269 174
1407 255 123 265 111 258 97 266 37
571 270 164 255 233 268 89 264 111 267 183 266 28
604 264 37 265 28 262 121 258 62 267 152
1562 270 94 265 183 262 26 266 152 269 203
34 274 107 273 112 270 246 255 29 265 89
527 272 239 270 153 262 106 263 174 267 203
373 273 260 272 83 268 246 269 153 265 164 267 94
342 275 245 260 15 263 476
197 273 141 276 175 270 83 269 239 263 225 277 137
229 274 309 268 112 270 260 276 91 272 141
343 268 107 273 309 276 190
217 271 245 279 283 277 311 263 62
473 274 190 273 91 272 175 278 357 277 280
332 272 137 276 280 280 105 278 15 275 311 279 145 263 0
110 281 322 276 357 280 111 277 15
527 282 169 280 253 275 283 277 145
152 283 193 282 145 281 62 278 111 279 253 277 105
154 283 227 280 62 278 322
219 283 110 284 340 280 145 279 169
132 284 184 281 227 280 193 282 110
327 283 184 282 340
