266 740 11
218 3 13 4 1 6 9 10 25 36 20
207 3 30 5 1 13 34
274 1 13 2 30 5 33 6 8
186 1 1 6 15 7 19 8 16 10 26 23 4
149 3 33 6 29 2 1 8 2 13 17 15 9
333 1 9 3 8 4 15 5 29 8 27
240 4 19 10 30 22 34 23 9
439 4 16 6 27 5 2 9 22 15 1 23 9
93 8 22 23 31 15 1 18 40
223 1 25 4 26 7 30 36 22
105 13 20 16 14 17 14 19 15
137 19 23 24 34
189 2 34 5 17 11 20 15 14 17 20
270 16 23 17 7 20 12 25 20 28 12
168 5 9 13 14 8 1 9 1 17 22 18 29 21 15 25 3
773 11 14 14 23 17 6 19 19 20 2
310 13 20 15 22 11 14 16 6 14 7 25 6
105 23 1 15 29 9 40 21 21 30 13
536 11 15 16 19 12 23 20 8 24 13
172 16 2 19 8 24 27 14 12 28 11 31 7 33 17
101 15 15 18 21 25 18 29 27 30 7
255 7 34 23 24 27 38
66 4 4 7 9 8 9 9 31 18 1 22 24 27 8 30 2
69 19 13 12 34 20 27 26 37 33 1
187 15 3 17 6 14 20 21 18 28 15 29 7
409 24 37 33 25 35 42
305 23 8 22 38 30 28 32 35
234 14 12 20 11 25 15 29 17 31 31
281 25 7 28 17 21 27 30 29 31 7 91 27
182 23 2 18 13 21 7 27 28 29 29 32 33 91 13 97 1
156 20 7 28 31 29 7 33 16 91 4 92 34
764 30 33 27 35 97 64
270 24 1 20 17 31 16 26 25 34 14 35 7 92 9
461 33 14 35 8 92 15 94 18 101 25
738 33 7 26 42 34 8 93 30 94 25
116 1 20 10 22
256 38 3 44 16 49 33 58 10 121 34 133 1
875 37 3 40 8 41 20 45 7 49 16 57 4 133 28
452 47 6 51 10 54 48 122 41 132 20
371 38 8 133 1 41 15 45 9 46 17 48 7 128 21 131 8
530 38 20 40 15 45 14
211 50 14 53 20 123 24 129 9
210 47 17 51 17 46 7 48 6 56 13
231 37 16 50 2 52 12 58 16 121 17 123 9 127 25 130 9
755 38 7 40 9 41 14 48 10 57 29 67 1
302 40 17 51 7 43 7 48 19 131 15
919 39 6 43 17 51 5 54 16 56 1 61 16
114 40 7 45 10 46 19 43 6 56 15 67 13
832 37 33 38 16 55 26 57 2 58 14 69 6
251 44 2 42 14 52 25 53 26 60 20 123 15
206 39 10 47 5 43 17 46 7 131 13 132 9
504 44 12 58 33 50 25 60 22 72 23
513 42 20 50 26 60 11 77 12
271 39 48 47 16 61 5 68 22 74 39
291 49 26 57 19 59 23 69 17
195 47 1 48 15 43 13 61 11 66 21 67 9
512 38 4 49 2 45 29 55 19 59 13 67 18
280 37 10 44 16 49 14 52 33 69 33 72 3
134 57 13 67 11 55 23 69 4 65 31 78 6
288 50 20 53 11 52 22 62 22 72 6 77 14
430 47 16 54 5 56 11 66 11 68 24 76 1
489 60 22 72 1 77 19 75 21 87 10
793 68 23 74 6 76 10 73 17 90 12
512 67 23 66 16 76 9 86 16 89 8
102 67 2 59 31 70 25 78 6 86 21
853 56 21 67 2 61 11 64 16 76 21
630 45 1 57 18 48 13 56 9 59 11 64 23 65 2 66 2 86 3
516 54 22 61 24 63 23 74 22 76 1
398 49 6 58 33 55 17 59 4 72 4 78 34
678 65 25 78 9 86 6 79 16 82 19
126 77 24 80 13 183 22 194 4
661 58 3 52 23 69 4 60 6 62 1 75 29 78 11 84 17 176 4 184 10
874 74 3 63 17 88 22 90 13 175 1
266 54 39 68 22 63 6 73 3 88 10
74 72 29 62 21 87 10 184 21
762 61 1 68 1 66 21 63 10 64 9 89 14 90 10 180 13
109 53 12 60 14 62 19 71 24 80 2 87 17
289 69 34 72 11 59 6 65 6 70 9 82 4 84 29
277 86 4 70 16 81 14 82 5 181 20 188 3
411 77 2 87 30 71 13 184 2 193 17 194 16
473 86 11 79 14 85 13 179 5 188 13
479 78 4 70 19 79 5 83 2 84 13 181 1 182 17
202 82 2 84 22 176 25 182 13
276 72 17 78 29 82 13 83 22 176 8
637 86 2 89 19 81 13 179 16
376 67 3 65 21 64 16 70 6 79 4 81 11 85 2 89 16
550 77 17 62 10 75 10 80 30 184 3
605 74 10 73 22 175 21 205 3
858 76 14 64 8 86 16 85 19 179 4 180 11
1083 76 10 63 12 73 13 175 7 180 17
135 30 13 31 4 29 27 92 25 95 21 96 43 97 1
224 31 34 33 9 91 25 34 15 95 5 99 11 101 5
847 35 30 94 18 98 34 111 11
378 35 25 34 18 93 18 101 14 111 14
564 91 21 92 5 96 5 99 26 113 19
843 91 43 97 8 95 5 104 47 109 1 113 14
384 30 1 32 64 91 1 96 8 100 23 103 31 104 11 112 10
307 93 34 102 35 108 1 111 15
578 92 11 101 33 95 26 113 19
227 97 23 103 20 106 10 112 29
266 92 5 34 25 94 14 99 33 107 2 111 8 113 1 114 22
128 98 35 111 11 108 36 115 5
408 97 31 100 20 106 30
966 97 11 96 47 109 8 110 18 112 30
231 129 21 106 33 126 10
230 100 10 103 30 112 6 105 33 126 9
484 101 2 128 21 113 21 114 28 119 6 120 18
251 98 1 102 36 115 12 117 33
183 96 1 113 31 104 8 110 8 118 25 120 31
554 130 20 104 18 109 8 112 16 118 30
153 94 14 101 8 93 11 98 15 102 11 114 32 115 12 116 1 119 1
347 97 10 130 13 104 30 100 29 106 6 110 16 126 5
329 101 1 95 19 96 14 99 19 107 21 109 31 120 3
166 101 22 111 32 107 28 119 21
443 111 12 102 5 108 12 116 23 117 21 124 4 125 1
116 131 8 111 1 115 23 119 30 125 16
192 122 40 108 33 115 21 124 5
238 121 29 130 3 109 25 110 30 120 1
277 128 19 131 4 111 1 107 6 114 21 116 30
748 121 1 133 35 128 1 113 3 109 31 107 18 118 1
118 37 34 44 17 118 29 120 1 130 1 133 18
297 39 41 117 40 124 14 132 7
231 44 9 42 24 50 15 126 16 127 8 129 15
718 122 14 132 13 115 4 117 5 125 19
261 132 6 131 17 115 1 116 16 124 19
105 123 16 129 9 127 18 130 16 112 5 106 9 105 10
293 44 25 123 8 126 18 130 17
260 133 17 40 21 107 21 119 19 120 1 131 9
176 42 9 123 15 105 21 126 9
179 44 9 121 1 127 17 110 20 112 13 118 3 126 16
318 40 8 51 13 132 1 46 15 128 9 116 8 119 4 125 17
193 39 20 51 9 122 7 124 13 125 6 131 1
499 37 1 38 28 121 18 40 1 120 35 128 17
436 139 23 140 17 144 26 146 3 162 32
137 137 23 145 3 149 11
86 137 5 141 6 143 17 147 20 159 5 255 23 260 20
213 135 23 136 5 143 24 145 1 260 30
230 146 6 141 31 147 9 142 29 155 26
121 134 23 140 22 144 1 246 20 253 15 254 5 263 18
157 134 17 139 22 146 15 254 2 256 16
281 136 6 138 31 142 5 147 33 255 3 262 5
219 146 15 141 5 138 29 249 4 257 19 262 12
455 137 24 145 24 136 17 159 26
202 134 26 139 1 153 29 158 37 162 1 163 1 253 16
100 135 3 137 1 143 24 149 55 159 97
193 134 3 140 15 138 6 142 15 155 14 162 10 254 7 256 9 257 1
320 136 20 141 33 138 9 155 9 159 41
284 150 177 151 124 154 12 157 288 160 27
127 135 11 145 55
443 148 177 151 40 157 22 212 16 217 10 226 6 236 52 242 47
380 148 124 150 40 154 26 236 54 245 11 247 46
525 163 33 154 8 160 29 161 30
553 144 29 253 14 154 15 163 21 258 24
461 153 15 163 4 148 12 151 26 152 8 160 18 245 6 258 23
246 146 14 162 17 147 9 159 23 138 26 156 46 167 11
298 162 7 155 46 167 43 168 10
338 148 288 150 22 160 6 161 26 173 315
162 144 37 162 11 163 15 165 20 166 20 168 5
287 145 97 136 5 143 26 147 41 155 23 167 1 171 85
292 148 27 154 18 157 6 152 29 161 1
649 163 12 157 26 160 1 152 30 173 28
79 134 32 144 1 146 10 155 17 156 7 158 11 168 26
355 144 1 153 21 158 15 152 33 154 4 161 12 165 33 169 8 173 4
121 167 11 168 14 166 5 171 17 170 24
161 158 20 163 33 166 10 169 39
151 158 20 168 26 165 10 164 5 169 25 170 29
311 159 1 155 11 156 43 164 11 168 9 171 49
76 162 26 158 5 156 10 167 9 164 14 166 26
791 163 8 173 10 165 39 166 25 170 1 172 53
70 166 29 171 6 169 1 164 24 172 4 174 32 265 12
148 159 85 167 49 164 17 170 6 174 126
248 173 73 169 53 170 4 264 86 265 2 266 8
818 163 4 157 315 161 28 169 10 172 73 264 610
270 171 126 170 32 265 183
418 73 1 90 7 88 21 180 6 189 17 205 14 220 13
484 72 4 84 8 83 25 182 1 184 9 186 2 192 20 197 13
248 181 16 182 13 186 19 185 18
277 180 1 179 20 189 10 191 11 203 11
767 89 4 180 2 81 5 188 1 85 16 178 20 191 4
946 76 13 90 17 89 11 175 6 178 1 179 2 189 20
110 79 20 82 1 177 16 182 1 185 9 188 4
736 82 17 176 1 181 1 83 13 177 13 186 11
551 71 22 194 17 217 17
350 72 10 75 21 87 3 80 2 176 9 190 21 193 10 197 13
167 181 9 188 12 186 1 177 18 195 11 200 17
330 176 2 182 11 177 19 185 1 192 13 195 8 214 1 219 16
337 188 7 191 11 203 12 200 9 198 13
340 79 3 81 13 181 4 179 1 185 12 187 7 191 10 200 4
642 175 17 180 20 178 10 203 22 220 15
307 184 21 193 16 197 18 202 1 206 14
263 188 10 179 4 178 11 187 11 203 5
166 176 20 186 13 197 12 219 16
225 80 17 194 19 184 10 190 16 199 1 206 12
39 71 4 80 16 183 17 193 19 199 10 201 5 204 16 217 4 221 4
275 186 8 185 11 200 16 214 18 215 15 234 5
265 197 15 202 22 209 13 210 31 216 6
917 176 13 184 13 192 12 190 18 196 15 202 6 210 6 219 20
138 203 4 200 14 187 13 218 19 234 13
631 194 10 193 1 206 13 201 14 207 5
105 188 4 185 17 195 16 187 9 198 14 234 2
944 194 5 199 14 207 6 216 11 221 16
570 197 6 190 1 196 22 206 20 207 6 216 9
526 189 22 220 7 178 11 191 5 187 12 198 4 213 5 218 18
267 194 16 212 21 217 28 221 17
559 88 3 175 14 220 31
921 193 12 190 14 202 20 199 13 207 4
447 202 6 206 4 199 5 201 6 216 2
240 226 8 221 13 209 16 216 10 224 1 228 10 232 10
191 196 13 208 16 210 8 216 13 232 2 233 1 243 22
488 197 6 219 13 196 31 209 8 231 21 241 20 243 9
1134 218 25 213 15 229 20 244 26
391 150 16 204 21 217 13 221 15 226 34
351 220 32 203 5 218 7 211 15 229 29
366 186 1 195 18 215 20 219 22 225 1 230 13 231 18
290 195 15 214 20 225 13 234 23
329 202 9 201 11 221 9 196 6 209 13 207 2 208 10
279 183 17 194 4 150 10 212 13 204 28
462 203 18 198 19 234 18 211 25 213 7 244 5
277 186 16 192 16 197 20 214 22 210 13 231 9
495 175 13 205 31 189 15 203 7 213 32
306 194 4 212 15 226 4 201 16 204 17 208 13 216 9
188 224 9 228 9 223 7 227 1 235 13 238 8
205 242 15 224 12 222 7 238 5 240 15
77 226 21 242 5 208 1 222 9 223 12 228 16
286 214 1 215 13 234 16 244 2 230 27 237 19 251 27
682 150 6 212 34 208 8 221 4 224 21 242 24
164 228 3 232 4 233 11 243 9 222 1 235 17
195 208 10 224 16 222 9 227 3 232 13
342 213 29 211 20 244 13 248 1
702 214 13 231 26 241 12 225 27 237 9
172 214 18 219 9 210 21 230 26 241 19
206 209 2 208 10 228 13 227 4 233 12
106 209 1 232 12 227 11 243 14
263 195 5 200 2 198 13 215 23 218 18 225 16 244 20
62 245 8 243 4 222 13 227 17 238 17 259 19
319 150 52 151 54 240 20 242 41 247 43
201 246 25 241 7 225 19 230 9 250 3 251 10 252 17
171 245 16 247 7 222 8 223 5 235 17 240 15
379 246 10 263 15 243 21 241 24 259 29
82 236 20 242 3 247 3 223 15 238 15
573 246 19 210 20 243 15 231 19 230 12 237 7 239 24
170 150 47 226 24 236 41 223 15 224 5 240 3
310 209 22 210 9 233 14 227 9 235 4 239 21 241 15 259 2
190 262 1 234 20 218 5 211 26 229 13 225 2 248 41 251 33
396 151 11 154 6 235 8 238 16 247 18 258 30 259 18
249 139 20 237 25 239 10 241 19 250 13 254 2 261 5 263 19
190 151 46 236 43 245 18 238 7 240 3
257 255 27 260 34 262 1 229 1 244 41
272 142 4 262 28 250 5 251 7 252 10 257 11 261 9
239 246 13 249 5 237 3 252 21 261 23
740 262 19 249 7 244 33 225 27 237 10 252 17
246 249 10 237 17 251 17 250 21
250 139 15 144 16 153 14 258 24 259 7 263 31
138 139 5 140 2 146 7 246 2 256 21 257 16 261 16
93 136 23 141 3 248 27 260 12 262 41
179 140 16 146 9 254 21
218 146 1 142 19 254 16 249 11 261 16
919 253 24 153 24 154 23 245 30 259 1
294 253 7 263 20 245 18 258 1 243 2 235 19 239 29
375 137 30 136 20 255 12 248 34
169 246 5 254 16 249 9 257 16 250 23
281 141 5 255 41 142 12 244 1 248 1 249 28 251 19
267 139 18 246 19 253 31 239 15 259 20
201 173 610 172 86 266 465
115 170 12 172 2 174 183 266 287
82 172 8 265 287 264 465
