264 727 11
82 2 228 3 385 5 88
201 1 228 5 439
115 6 215 1 385 7 120 5 27
818 5 194 20 154 21 286 8 103 10 44
248 2 439 3 27 1 88 4 194 8 530 7 42
270 3 215 7 272
70 3 120 6 272 5 42 9 55 8 12 11 240 13 291
791 5 530 7 12 12 398 4 103 13 255 10 87
148 7 55 11 179 14 67
355 24 334 26 40 21 122 12 337 8 87 4 44 25 218 18 154 28 3
121 9 179 7 240 15 144 13 55 14 112
161 13 101 18 204 8 398 10 337
151 7 291 12 101 8 255 15 266 18 204 11 55
311 9 67 15 91 11 112 17 176
76 13 266 18 51 23 265 14 91 11 144 17 104
246 36 0 17 229 23 171 29 149
298 16 229 15 104 14 176 23 71
162 12 204 15 51 13 204 10 154 23 110 28 374
287 27 268 35 51 31 232
510 22 62 30 71 21 265 4 154
649 22 0 20 265 24 306 4 286 10 122
292 26 184 30 279 24 291 20 62 21 0
79 16 171 15 265 17 71 18 110 34 321 28 11 29 104
525 22 291 26 81 21 306 10 334
553 26 156 47 242 42 148 10 218 28 293
461 22 184 30 123 33 268 54 67 24 81 47 233 25 156 10 40
455 37 249 35 173 19 268
202 42 164 25 293 18 374 10 3 34 261 38 1 23 11
193 36 63 16 149 40 159 46 8 44 97 43 73 34 33 23 104 41 158
284 22 279 33 129 26 123 20 71
320 35 202 19 232 39 0
443 67 475 88 165 76 61 93 106 61 104
380 30 129 55 169 26 268 54 119
436 28 261 23 321 38 234 41 170 29 33
86 50 203 45 237 37 50 27 173 19 51 39 68 31 202
230 40 298 39 240 16 0 29 63
213 50 301 27 249 35 50
121 52 188 53 202 43 50 42 157 34 234 28 1 41 224
281 45 33 35 68 49 51 36 240 31 0 40 55
219 49 125 36 298 39 55 56 47 29 159 46 190
157 44 163 43 23 34 170 38 224 29 158
250 47 244 48 74 52 316 25 148 38 157 28 164
138 46 160 51 161 53 21 44 213 29 73 38 50 41 23
179 43 213 29 97 41 163
93 50 125 57 274 49 414 39 33 35 237
218 40 190 56 110 29 8 51 160 43 160
919 54 304 26 233 25 242 48 11 42 244
294 65 293 54 184 69 25 47 11 52 201 62 198 42 74
281 45 414 57 15 70 1 59 199 39 51 56 280 40 125
375 45 125 57 340 35 203 37 301
169 58 232 56 90 46 160 53 56 43 161
267 65 156 48 201 53 196 42 316 38 188
249 65 101 58 134 63 259 52 196 68 196 51 56 38 202 43 21
396 55 184 33 119 26 67 47 304 64 166 48 184 62 86
190 61 190 33 169 54 184 64 76 66 37
272 59 78 49 280 58 56 60 102 40 47 51 90 46 110
257 50 340 45 274 79 15 49 15 70 417
239 53 134 51 232 56 56 60 219 63 31
586 70 336 74 276 49 199 56 78 60 172 63 108
246 59 172 58 219 56 102 63 175
319 67 419 32 104 55 190 66 204
62 54 86 69 47 48 198 71 132 75 177 64 176
201 59 108 58 31 60 175 74 196 68 77 53 259 77 94
171 55 76 66 156 54 166 71 89 62 176 72 52
379 53 101 52 156 48 293 69 211 68 245
82 67 34 55 37 61 204 72 152 64 156
170 61 419 32 475 66 34 72 153 73 52 76 249
573 65 245 69 153 63 77 82 194 53 196 86 206 77 126
310 65 211 80 142 84 220 86 90 48 25 68 153 75 90 62 47
190 57 417 87 261 79 139 74 29 59 336 81 204 49 1 94 50
188 75 4 78 94 62 132 73 92 72 74 64 89
205 67 153 66 152 71 74 73 121 64 52
77 67 52 76 215 85 17 71 92 78 166 72 121
286 70 29 59 276 63 196 90 131 81 162 77 278 92 10
164 80 114 83 47 69 90 71 4 78 37 62 177
682 67 249 88 349 73 215 32 61 85 87 96 41
702 63 94 74 278 82 267 68 126 92 133
195 85 102 83 139 71 94 75 37 73 166
342 57 15 87 200 70 139 89 293
106 75 114 69 142 83 122 84 4
263 70 204 94 185 90 235 74 162 101 134 100 58 106 27
451 68 194 86 211 77 267 95 99 92 184
206 85 106 80 122 84 20 78 139 75 47
191 98 131 85 169 80 4 83 20 91 131 69 220 86 85
240 76 87 73 17 96 132 91 109 84 169 83 106 78 102
488 98 311 102 61 84 85 69 90 82 211 68 206 95 137
1134 70 261 79 200 94 256 89 151
391 96 154 108 211 76 349 32 165 93 139
351 97 323 87 151 79 293 94 76 104 54
290 100 157 92 201 81 235 74 131
329 98 65 85 109 96 98 84 131 110 29 107 94 103 112
366 90 201 74 10 82 184 77 133 95 224 111 15 100 184
279 124 160 88 139 32 106 108 286 130 175 99 49
462 87 256 70 50 104 182 89 76 81 185 101 194
277 117 167 102 201 82 99 86 137 111 165 92 224
811 88 154 76 41 85 132 108 174 91 98 99 45 103 167
495 89 323 104 72 114 159 121 137
265 91 65 107 224 84 131 86 311 102 150
39 108 160 93 49 130 175 96 45 134 167 146 43 118 191 103 51 105 100
275 90 157 81 58 92 184 106 163 111 81 112 118
138 94 194 104 43 81 134 113 135 106 147
917 98 150 117 125 120 138 115 184 95 201 86 61 129 137 107 63
944 96 167 99 51 110 65 105 144 91 112
526 97 72 94 182 89 54 114 220 123 110 119 53 101 43 113 123
631 99 100 118 6 110 55 109 133 103 144
105 101 147 81 27 113 91 100 163 116 47 112 177
570 98 224 115 19 102 63 110 61 109 202 91 94
267 88 211 96 174 93 286 99 160
921 115 147 118 128 110 41 107 202 105 133
748 109 41 107 61 105 55 103 65 91 29
330 117 139 120 28 95 165 92 15 100 81 127 113 122 199 112 7
167 106 177 100 118 111 7 126 97 122 181 116 120
337 104 123 119 114 101 135 116 71 106 91
642 97 159 104 220 121 178 123 107 128 208
307 102 184 107 19 109 147 129 210 118 160
340 119 104 113 71 125 1 106 47 138 134 126 49 132 31 112 120
166 111 139 95 167 120 201 102 125
225 115 160 129 105 134 176 99 191 109 128 105 6
263 104 53 123 118 113 114 116 104 125 48
484 117 201 147 47 129 91 102 138 140 81 137 255 111 28 127 1
418 141 211 97 137 148 9 114 178 144 72 128 64
248 111 199 126 164 127 134 112 181
277 114 107 104 110 128 16 119 118 125 202
84 93 160 133 75 130 211
767 128 27 123 202 119 48 142 43 139 115 116 1 138 45 131 56
110 132 208 136 14 127 2 122 164 112 97 116 49
736 120 1 137 136 111 113 126 2 136 174 122 134
946 149 133 114 208 144 179 121 64 142 118 123 16 125 27
350 120 91 115 210 102 137 147 109 151 212 118 105 134 26 143 31
551 124 211 93 175 133 73 146 221 99 175
637 142 190 139 117 125 56 135 25 138 83
277 145 163 138 143 135 44 126 208 136 58 116 31
124 124 75 130 73 146 320
411 129 26 118 176 143 300 99 167 146 139 153 26
376 142 163 131 25 160 35 157 217 156 169 145 62 138 119 132 44
479 140 132 152 42 137 20 145 198 126 14 132 58 127 174
202 120 255 140 222 127 136 136 20
473 139 63 125 45 131 83 116 134 135 119 132 143
747 125 115 138 63 131 117
276 120 81 152 297 147 177 137 222 136 132
605 150 107 148 221 121 211
858 149 143 128 118 156 89 135 163 125 43 131 190
550 129 31 134 300 155 103 151 104 153 179
1083 148 131 154 128 149 104 121 72 128 179
678 152 96 157 250 135 62 136 198 132 163
126 130 221 134 139 133 320 99 43 153 244
661 161 40 120 47 171 31 129 109 140 177 152 111 155 18 151 292 167 235 163 63
874 141 221 150 39 121 9 154 177 144 131
762 159 7 154 109 158 219 156 95 142 143 164 8 144 104 128 133
266 141 107 159 228 148 39 166 392 154 65
74 129 212 155 212 143 104 147 292
289 161 347 140 297 147 111 162 66 157 60 145 96 136 42
109 134 26 146 244 155 197 143 179 163 144 165 129
793 159 231 150 65 148 177 149 109 144 128
489 143 103 151 212 153 197 163 228 147 18
512 149 95 142 89 160 239 158 162 135 169
102 152 60 160 29 162 310 145 250 135 217
853 149 219 164 115 160 27 169 213 156 162
516 166 228 164 244 150 228 149 7 154 231
630 179 19 170 185 172 134 162 118 169 93 157 29 158 27 156 239 135 35
398 171 334 147 40 152 347 175 61 168 174 162 41
134 161 41 168 239 152 66 160 118 170 133 157 310
288 155 228 147 63 153 144 167 226 165 110 176 205
923 159 244 149 8 166 55 169 115 158 115 173 168
513 153 129 163 110 186 206 176 261
271 159 228 150 392 164 55 183 488 173 163
401 171 338 147 235 178 128 163 226 176 250
291 161 174 175 260 162 239 170 192
195 164 115 177 131 173 11 160 93 172 155 158 213
512 168 192 175 22 182 48 160 185 179 293 162 133
280 161 334 175 149 167 338 147 31 181 107 178 167
114 184 75 177 65 180 191 160 134 179 103 169 155
919 166 163 164 168 174 52 183 62 177 179 169 11
206 187 138 188 99 183 106 177 171 180 77 173 52
832 161 61 168 260 181 334 171 149 182 163 170 22
251 178 25 167 250 163 205 186 144 192 159 165 261
210 174 171 173 179 169 131 172 65 180 79
231 171 167 181 160 190 172 199 95 194 254 167 128 192 99 176 25
755 185 143 182 77 184 92 160 19 170 293 172 103
302 184 176 174 77 187 155 177 79 172 191
256 189 6 175 334 171 107 182 39 190 344 178 160
875 189 286 175 163 181 39 185 205 184 85 170 48 179 77
452 166 488 174 106 191 419 188 205 173 62
371 189 4 197 215 185 152 182 85 187 85 180 176 179 92 172 75
530 184 152 182 205 179 143
211 176 144 192 246 165 206 206 131 198 94
318 197 94 205 45 184 85 201 85 174 138 180 155 195 178 188 15
193 174 99 187 15 183 205 193 130 195 69 191 72
499 197 170 204 355 190 187 182 286 181 6 184 4
118 189 187 181 344 203 296 204 0 178 172 199 10
297 183 419 193 140 202 407 188 72
231 196 160 194 82 178 99 186 246 176 159 198 153
718 200 49 202 51 195 191 191 140 188 130
293 199 179 196 180 178 254 192 82
261 201 166 187 178 193 191 200 0 188 69
105 207 101 208 95 214 55 199 160 198 91 194 180 192 160
260 209 217 189 170 204 16 205 192 184 215 187 94
176 207 219 196 91 186 94 192 153 206 162
179 214 130 203 36 190 10 212 201 196 160 194 179 178 95
443 217 50 210 120 213 129 201 234 193 49 202 211 195 0
116 213 7 205 306 200 234 187 85 195 166
192 210 338 193 51 200 211 191 407
238 211 250 204 18 190 296 212 306 199 36
748 215 37 209 181 189 355 203 18 211 316 197 16 190 0
277 216 212 209 66 213 10 197 192 201 306 187 45
159 207 166 218 134 208 18 186 131 198 162
231 208 336 206 166 198 219 196 101
230 207 336 222 100 218 303 206 18 196 95 214 62
484 215 215 223 21 216 281 204 181 197 217 205 66
251 220 18 217 366 200 120 202 338
183 225 16 219 80 215 315 203 250 204 316 212 80
554 219 185 214 167 203 306 211 80 199 201
153 220 155 217 118 230 149 229 113 223 81 216 320 200 129 205 10 201 7
347 219 303 222 294 208 62 226 104 212 167 196 55 199 130
329 221 199 225 144 224 197 211 315 204 37 223 1 209 215
166 223 221 213 320 209 281 205 212
128 220 350 210 366 213 118 200 50
408 222 201 208 303 206 134 226 319
1024 225 472 211 80 212 185 214 303 226 111
307 229 343 210 18 213 155 217 350
578 224 262 215 199 228 112 223 334
227 218 201 208 100 214 294 226 237
266 221 334 230 146 231 251 228 55 215 1 213 81 216 221 209 21
564 221 262 225 54 215 197 228 53 227 210
843 227 436 226 87 219 472 224 54 215 144 211 16
384 233 2 234 642 225 87 219 111 222 237 218 319 227 14 214 104
135 233 138 225 436 224 210 226 14 235 44 228 251 240 273
224 221 112 224 53 231 156 235 340 236 93 227 251 223 55
847 220 343 230 188 213 113 232 305
378 223 146 213 149 231 183 229 188 232 251
461 230 183 228 156 236 142 223 251 232 86
738 237 422 230 251 231 86 229 305 236 73
182 250 139 238 284 242 77 227 138 226 2 245 28 234 338 240 299
764 238 358 233 338 226 642
156 228 340 236 164 241 73 239 315 240 79 227 44
270 244 19 237 250 231 142 232 73 235 164 228 93 241 175
409 244 372 232 422 236 250
305 245 81 233 284 243 387 234 358
234 246 158 247 121 235 315 241 113 240 174
281 233 299 242 276 246 76 235 79 239 174 227 273
172 249 25 244 273 252 82 247 127 235 73 236 175 239 113
101 250 214 233 77 248 159 246 184 240 276
255 253 344 238 387 245 240
69 237 372 236 19 241 273 252 137
66 250 17 253 95 238 81 243 240 233 28 254 316 259 43 255 90
187 242 184 251 63 248 38 240 76 247 209 239 158
270 251 78 249 232 246 209 241 127 239 121
168 250 297 242 159 251 225 254 4 246 38 260 92 258 142 255 4
773 251 68 257 149 252 196 241 25 247 232
105 233 139 242 214 248 297 254 404 245 17
310 249 68 247 78 246 63 248 225 257 142 258 201
536 249 196 257 156 244 137 241 82
240 256 309 243 344 259 196 245 95
93 250 404 245 316 248 4 255 224
439 245 90 254 224 259 164 260 29 261 272 248 4
223 253 309 262 251 259 264
105 251 142 249 149 252 156 258 204
189 251 201 257 204 260 171 248 142 263 347
186 256 264 253 196 245 43 262 14 255 164 261 154
149 261 291 264 336 248 92 258 171 255 29 263 19
333 259 154 262 94 260 291 255 272 264 86
218 256 251 259 14 264 137 261 94
207 260 19 264 303 258 347
274 262 137 260 336 261 86 263 303
