177 484 11
778 6 83 33 127 59 26 60 50 175 8
189 48 4 49 50 51 38
893 5 83 14 49 15 51 128 15
1641 14 15 15 29 10 27
513 175 22 3 83 7 37 14 44 62 45 128 2 176 44 177 5
208 1 83 52 95 60 55 65 10
379 5 37 128 20 142 10 177 22
125 9 20 11 29 12 22 13 8 29 2 31 3
475 8 20 12 19 29 1 34 31
1740 14 3 15 24 128 37 4 27 12 57 13 28
1483 14 216 8 29 13 35 31 7 32 122 39 135
597 128 146 10 57 8 22 9 19 13 28 34 187
252 14 50 10 28 8 8 11 35 12 28
544 3 49 5 44 4 15 10 3 11 216 13 50 15 11 39 638 61 671 62 126
1695 3 51 14 11 4 29 10 24 128 15
1091 17 5 18 5 19 6 20 2 37 1 141 3
999 16 5 18 4 35 6 37 1
513 16 5 17 4 35 1 38 9 141 1
814 16 6 20 3 25 3 141 4
938 16 2 19 3 22 6 25 2 26 2 37 1
237 29 1 31 3 37 2 22 5 26 12 23 11 28 14
977 20 6 37 8 21 5 26 6
550 39 28 37 22 21 11 28 24
1292 141 43 25 4 27 3 30 7 43 36
1288 19 3 20 2 141 1 24 4 26 3 27 2
1315 29 1 20 2 25 3 22 6 21 12 27 14 30 1
216 25 2 26 14 24 3 30 16
640 31 22 32 32 39 26 21 14 23 24
1258 8 2 9 1 21 1 26 1 30 18 31 7 34 10 43 10
932 29 18 26 1 24 7 27 16 43 4
208 8 3 11 7 29 7 21 3 28 22 32 21
1196 11 122 31 21 28 32 39 78
348 1 127 142 143 175 18 177 24
894 9 31 12 187 29 10 43 215
1316 17 6 18 1 37 27 36 14 38 23
319 39 17 37 1 35 14 38 84 41 61 45 6 140 66
543 39 7 16 1 17 1 20 1 21 2 22 8 23 22 35 27 36 1
536 18 9 141 225 35 23 36 84 140 178
264 14 638 11 135 32 78 23 28 28 26 36 17 37 7 41 23 47 395 61 288 121 284 143 499
124 41 7 45 76 47 338 46 271
729 39 23 36 61 40 7 45 8 47 50
32 121 26 44 29 119 44 123 35
903 29 10 34 215 141 174 24 36 30 4
83 45 14 140 46 121 15 46 27 42 29 123 1
43 36 6 41 8 40 76 44 14 46 60 140 24
86 45 60 47 66 121 380 40 271 44 27
61 39 395 41 50 40 338 46 66 121 29
149 2 4 51 133 57 989
61 2 50 50 40 51 13 63 50
59 49 40 51 8 58 46 63 26
68 2 38 48 133 49 13 50 8 57 66 58 52
159 6 95 53 12 56 25 63 68 65 6
170 52 12 65 23 54 15 55 20 56 10
18 65 15 61 69 57 33 53 15 55 41 64 16
150 57 49 58 8 53 20 56 33 54 41
739 52 25 63 37 58 5 53 10 55 33
334 48 989 51 66 61 1261 54 33 55 49 58 83
248 51 52 57 83 50 46 63 1 55 8 56 5
168 1 26 60 10 64 11 175 28 176 38
198 1 50 6 55 59 10 64 27 65 4
61 14 671 62 238 39 288 54 69 57 1261 64 24
42 5 45 14 126 61 238 64 14 176 91
50 49 50 52 68 50 26 56 37 58 1
125 59 11 60 27 62 14 176 5 65 28 61 24 54 16
191 6 10 60 4 52 6 53 23 54 15 64 28
136 69 21 70 1 71 14 72 23 78 29 82 21 83 14
94 75 79 88 56 144 165 154 244
46 69 25 88 37 77 60 81 42 133 27 137 49
238 66 21 68 25 71 6 81 36 83 15 133 43
626 143 270 66 1 72 2 78 24 93 312 134 36 136 1 145 10
93 143 62 66 14 69 6 72 32 133 93
699 143 3 66 23 70 2 71 32 135 9 145 30
113 77 52 74 14 76 9 84 48 98 8
62 88 21 77 42 73 14 84 46 91 81 109 23
88 67 79 132 334 138 8 144 167 154 114
177 83 14 77 20 81 21 73 9 79 14 80 32 85 1 98 34
214 88 22 68 60 73 52 74 42 76 20 81 14
103 66 29 70 24 79 3 82 24 85 18 86 3 87 31 93 25
723 78 3 82 19 83 18 76 14 80 25 85 13
466 76 32 79 25 85 34
44 69 36 83 12 68 42 77 14 76 21
388 66 21 78 24 79 19 83 23
242 66 14 69 15 82 23 76 14 79 18 81 12
164 73 48 74 46 98 56 107 18 109 7
932 78 18 76 1 98 11 79 13 80 34 86 40 96 4 99 31
101 78 3 85 40 87 48 97 27 99 34 108 20
63 78 31 93 109 86 48 97 123
311 67 56 68 37 74 21 77 22 91 73 115 12 137 14 138 33 139 68 144 15 154 7
524 99 1 108 50 102 38 106 51
25 97 123 92 35
285 88 73 74 81 100 58 109 72 115 20 116 1
172 97 34 108 19 90 35 101 20 104 32
409 143 796 70 312 78 25 87 109 97 291
63 98 1 107 24 96 58 102 12 95 38
123 96 13 99 15 102 48 94 38
164 98 72 85 4 94 58 95 13 99 7
52 93 291 86 27 87 123 90 123 92 34 108 1
117 73 8 76 34 84 56 85 11 94 1 96 72 107 3
140 85 31 86 34 96 7 89 1 95 15 102 1 108 50
944 91 58 115 134 116 146
240 108 11 106 33 92 20 103 29 104 47 105 1 114 35
258 107 37 99 1 89 38 94 12 95 48 106 3 111 2 112 29 113 10
427 101 29 105 16 112 39 114 34
308 92 32 101 47 114 19
483 106 21 101 1 103 16 112 13
727 108 12 89 51 102 3 101 33 105 21 112 26
162 84 18 98 3 109 47 94 24 102 37 113 72
181 86 20 99 50 97 1 89 50 92 19 101 11 106 12
223 74 23 84 7 91 72 107 47 110 70 113 33 116 41 118 52
103 109 70 116 201 118 24 148 240
60 102 2 114 28 112 55 113 85 117 6 118 113
846 102 29 106 26 103 39 105 13 114 28 111 55
311 109 33 107 72 102 10 111 85 118 6
478 101 35 104 19 103 34 111 28 112 28 117 23
137 88 12 154 379 91 20 100 134 116 259
96 91 1 109 41 115 259 100 146 110 201 148 185
519 114 23 111 6 118 33 158 85 159 65
85 109 52 111 113 113 6 110 24 117 33 148 82 158 112 161 16
152 121 504 42 44 120 544 123 13 125 7
495 121 52 119 544 122 122 124 482 125 28
56 39 284 47 29 42 26 44 15 46 380 119 504 120 52 124 38 143 88
188 120 122 125 51 124 100 130 56
191 140 260 42 35 44 1 119 13 125 238 132 33
131 121 38 143 301 120 482 122 100 126 335 130 39
247 119 7 123 238 132 210 120 28 122 51 130 41
131 143 127 124 335 130 27 127 23 129 219
106 132 45 138 58 130 72 126 23 129 27 131 32
651 3 15 5 2 15 15 7 20 10 37 12 146 142 169
101 143 52 133 17 137 166 139 4 126 219 127 27 131 23
148 132 51 125 41 122 56 124 39 126 27 127 72
119 138 24 139 32 127 32 129 23
134 140 48 123 33 75 334 125 210 127 45 130 51 138 7
216 143 91 69 43 71 93 68 27 129 17 137 146
1173 143 30 70 36 135 4 136 20
742 143 14 72 9 134 4 136 3 145 1
1145 70 1 134 20 135 3 145 22
165 88 14 68 49 133 146 129 166 139 60
573 75 8 88 33 144 44 132 7 127 58 131 24 139 46
345 88 68 137 60 138 46 129 4 131 32
282 38 178 36 66 45 24 44 46 123 260 132 48
1359 16 3 18 1 19 4 24 43 25 1 38 225 43 174
788 33 143 128 169 7 10 177 18
800 39 499 121 88 70 270 71 62 72 3 93 796 124 301 126 127 129 52 133 91 134 30 135 14
68 67 165 75 167 88 15 138 44
1087 70 10 72 30 136 22 135 1
388 149 88 165 106 166 85 167 11
229 148 227 161 108 149 19 166 71 150 148 164 36 174 315
155 116 185 110 240 118 82 147 227 161 242
511 146 88 147 19 150 52 152 139 153 50 165 24 166 101
265 149 52 147 148 151 85 152 12 174 90
374 150 85 174 53 152 61 153 72 168 137
378 149 139 150 12 151 61 153 86
1280 149 50 152 86 151 72 168 73
106 67 244 75 114 88 7 115 379
172 156 26 160 33 162 16 163 7
176 155 26 157 31 160 4 162 20
912 158 37 159 56 161 50 156 31 160 26 162 6
38 118 112 117 85 157 37 159 46 161 56
16 117 65 158 46 157 56 162 64
1224 161 46 155 33 156 4 157 26 163 32
1039 118 16 148 242 158 56 147 108 157 50 160 46 163 1 164 199
44 159 64 165 19 167 36 155 16 156 20 157 6 163 52
218 161 1 167 68 164 43 155 7 160 32 162 52
962 161 199 166 163 167 33 147 36 163 43
196 146 106 149 24 162 19 167 87
304 146 85 149 101 147 71 164 163 167 31
242 146 11 165 87 166 31 162 36 163 68 164 33
617 174 61 153 73 151 137 170 68 171 50 173 108
626 170 1 171 11 173 3 172 12
1090 168 68 169 1 171 40 172 192
792 168 50 170 40 169 11 173 44
538 170 192 173 207 169 12
834 174 346 168 108 171 44 169 3 172 207
298 147 315 150 90 151 53 168 61 173 346
103 1 8 33 18 59 28 5 22 176 27 177 27
47 59 38 175 27 5 44 62 91 64 5
525 33 24 175 27 5 5 7 22 142 18
