347 966 11
1172 3 18 6 34 7 15 8 13
1156 3 23 7 1 8 21 9 28
1007 1 18 2 23 4 3 5 28 6 12 8 1 9 28
669 3 3 9 8 5 6 32 1 34 75 35 36 36 11 37 23
300 3 28 6 39 4 6 11 47 15 13 34 26
697 1 34 3 12 5 39 7 1 10 12 15 47 18 3
283 1 15 6 1 2 1 8 26 9 23 10 59
953 1 13 3 1 7 26 2 21
321 3 28 7 23 2 28 4 8 10 6 12 12 16 10 36 82
705 6 12 7 59 9 6 12 49 18 31 22 36
295 5 47 13 39 15 16
202 9 12 10 49 14 65 16 166 22 29 28 73
207 11 39 15 4 17 1 19 42 20 45
125 12 65 22 46 28 75 29 14
547 6 47 5 13 11 16 13 4 18 48 20 27
28 9 10 32 31 35 8 36 26 37 14 12 166 28 7 33 28 120 212
537 18 18 13 1 19 3 20 45 21 15 24 33 25 12
357 6 3 15 48 10 31 17 18 20 1 22 7 25 63
526 13 42 17 3 21 23 23 38
481 15 27 18 1 13 45 17 45
259 17 15 19 23 23 17 24 53 91 61
483 10 36 18 7 12 29 14 46 25 17 26 10 29 24
273 19 38 21 17 91 5
310 17 33 21 53 25 41 26 4 91 23 95 73 109 4
89 18 63 22 17 17 12 24 41 26 69
51 22 10 29 18 24 4 25 69 27 53 95 25 102 15
103 29 14 26 53 90 57 102 41
82 12 73 16 7 14 75 29 51 86 3 90 12 120 148
119 22 24 14 14 28 51 26 18 27 14 90 44
683 91 28 85 21 89 14
164 33 110
200 4 1 16 31 33 114 35 102
646 32 114 16 28 31 110
480 4 75 5 26
293 4 36 32 102 16 8 37 83
204 9 82 4 11 16 26 37 80
120 4 23 35 83 36 80 16 14
60 41 56 46 27 52 23 122 80
216 43 34 44 14 47 21 53 10 117 54 121 29
583 121 20 45 45 50 48 60 51 119 80
33 38 56 52 37 63 2
63 44 20 49 17 55 46 115 34 137 44
147 39 34 50 30 51 29 53 27 121 28
105 39 14 42 20 47 49 49 22 115 61 117 5 118 9
808 46 43 122 24 40 45 48 11 60 15 113 18 114 13 119 7
138 38 27 45 43 48 52 52 5 122 18
158 39 21 44 49 49 27 53 28 54 36 59 9
824 46 52 52 11 45 11 60 23 56 17 64 40
85 44 22 47 27 42 17 55 18 59 41
58 43 30 121 36 40 48 51 33 60 21 74 25 76 28
79 43 29 53 31 50 33 57 6 76 23
119 38 23 41 37 46 5 48 11 62 17 63 11 64 11 65 11
34 39 10 43 27 47 28 51 31 54 23 57 43
153 47 36 53 23 57 16 59 22 73 1 207 39 211 2
158 42 46 49 18 59 5 69 50 137 140 239 122
381 60 41 48 17 64 29 77 15 82 22 209 29
77 53 43 51 6 54 16 76 6 68 27 71 14 75 4 207 7
222 64 2 65 15 77 23 61 8 83 4
41 47 9 49 41 55 5 54 22 69 17 73 37
662 40 51 45 15 50 21 48 23 56 41 74 49 82 28
591 62 15 65 12 58 8 83 11
114 52 17 63 22 61 15 65 13 67 11 83 11
50 41 2 52 11 62 22 66 21 67 11
311 52 11 48 40 56 29 58 2 65 18 77 25
21 52 11 64 18 62 13 58 15 61 12
246 63 21 67 21 72 22 78 1
108 63 11 62 11 83 10 66 21 72 16 79 21
550 57 27 207 2 70 21 71 12
77 55 50 59 17 73 28 212 16 239 50
75 207 43 68 21 71 6 75 45
635 57 14 68 12 70 6 75 22
139 67 16 66 22 78 38 79 1 80 18 81 5
28 54 1 59 37 69 28 84 17 211 24 212 7
176 50 25 60 49 76 48 82 53 213 61
311 76 37 57 4 207 1 71 22 70 45 208 35 222 24
266 50 28 51 23 74 48 57 6 75 37 208 23 213 11
94 56 15 64 25 58 23 83 28 209 16
59 66 1 72 38 81 2 214 14 219 1
505 83 25 67 21 72 1 80 20 210 15 217 12
563 72 18 79 20 81 21 210 9
535 72 5 78 2 80 21 210 16 219 31
487 60 28 56 22 74 53 131 34 209 72 213 14
390 62 11 77 28 209 2 58 4 61 11 67 10 79 25 217 16 229 10
93 73 17 211 24 212 27 216 14
160 91 43 30 21 88 58 89 8
131 28 3 120 40 90 68 111 49 116 8 237 28
25 92 16 100 33 103 2
754 91 3 109 29 85 58 89 20 99 41
110 30 14 85 8 88 20 92 25 97 1 99 1 101 19
70 28 12 29 44 27 57 102 26 86 68 116 11
646 21 61 24 23 23 5 30 28 85 43 88 3 109 9
163 89 25 87 16 100 6 101 28
472 100 15 97 20 101 25 107 5 110 30
318 96 2 104 12 106 13 108 2
41 24 73 26 25 102 58 109 28 118 73
441 99 6 97 2 94 2 98 6 104 1 108 8
134 89 1 99 19 93 20 96 2 101 16 108 19 110 2 112 4
657 109 6 99 2 96 6 104 3
877 109 26 89 1 88 41 96 6 97 19 98 2
171 87 33 92 6 93 15 101 13 103 10 107 22
292 89 19 92 28 100 13 97 16 93 25
229 26 15 95 58 27 41 90 26 116 41 118 43
46 122 26 114 16 87 2 100 10 107 40
276 109 68 117 4 94 12 96 1 98 3 105 32 106 7 112 17
827 104 32 106 23 108 8 112 62
822 94 13 104 7 105 23 108 4
228 114 37 100 22 103 40 93 5 110 27
656 97 19 94 2 96 8 106 4 105 8 112 3
458 24 4 91 9 95 28 88 29 98 6 99 26 104 68 117 7 118 9
101 119 3 113 27 114 6 97 2 93 30 107 27 112 32
148 86 49 137 229 116 71 237 234
1172 117 3 121 31 119 60 97 4 110 32 104 17 108 3 105 62
95 45 18 119 49 110 27 114 47
94 122 43 45 13 113 47 103 16 107 37 110 6
227 44 61 42 34 116 67 118 41 137 7
196 102 41 90 11 86 8 115 67 137 42 118 18 111 71
26 109 7 39 54 44 5 104 4 112 3 118 111 121 66
192 95 73 109 9 102 43 44 9 117 111 115 41 116 18
824 121 18 40 80 45 7 110 3 112 60 113 49
212 16 212 28 148 86 40 237 633 291 11
58 39 29 43 28 117 66 40 20 50 36 112 31 119 18
585 38 80 46 18 45 24 103 26 114 43
489 124 25 127 13 128 6 129 26
197 123 25 125 15 126 13 127 3 128 4 191 13
330 124 15 127 26 126 20 240 12
170 124 13 125 20 191 30 240 28
444 123 13 124 3 125 26 129 3 132 28 233 28
138 123 6 124 4 129 19 151 1 170 33 191 18
1043 123 26 127 3 128 19 132 10 151 28
1296 131 37 138 21 140 41 165 9
418 82 34 209 14 213 1 130 37 138 17 140 5 147 33 150 13 169 5 229 20 234 48
779 127 28 129 10 133 30 145 35 151 6 233 16
455 132 30 233 32 145 5 221 13 224 20 230 39
166 135 37 166 16 198 83 220 42 226 29 241 33 292 16
105 134 37 143 13 149 24 198 17 226 42 231 12 235 21 238 22
435 137 171 239 106 166 84 241 5 180 63 185 240 227 67
248 42 44 55 140 115 7 111 229 116 42 136 171 185 41 237 154 239 9 291 54
658 131 17 130 21 160 1 165 27 169 39
606 140 11 149 10 235 29 141 29 144 23 236 21
687 131 5 130 41 139 11 144 14 164 19 165 2 234 29 236 16
53 143 10 149 38 139 29 144 25 178 33 267 1
115 145 19 146 1 148 8 159 23 194 1
41 135 13 198 19 141 10 149 61 267 67
177 140 14 139 23 141 25 164 30 178 16 184 4
533 132 35 151 22 133 5 142 19 148 2 153 4 194 45 230 11 232 8
505 142 1 148 3 152 5 153 4 159 7 188 7
162 131 33 150 38 162 7 163 19 168 12 169 40
841 145 2 142 8 146 3 153 7
190 135 24 143 61 139 10 141 38 235 24
194 131 13 229 44 147 38 163 37 171 56 194 6 232 47
796 128 1 129 28 132 6 145 22 152 19 153 3 170 2 188 3
1102 151 19 146 5 153 7 188 12
578 151 3 145 4 146 4 148 7 152 7
220 169 7 160 4 162 25 187 20 199 5 205 9
813 160 9 156 1 167 3 172 1 183 9 189 3
483 160 9 187 3 155 1 186 7 189 5
100 163 24 168 15 171 31 199 42 272 13
659 164 17 184 4 161 11 181 11
572 142 23 146 7 188 4 190 18 194 13 201 11
1479 138 1 165 1 169 4 154 4 155 9 156 9 167 16 187 7
830 165 1 164 5 167 4 158 11 176 14 181 4
170 147 7 169 8 154 25 168 11 199 16
101 147 19 150 37 157 24 168 11 171 12
183 140 19 165 20 144 30 158 17 161 5 184 1
812 130 9 138 27 140 2 160 1 161 1 164 20 167 28
112 134 16 136 84 180 43 241 43 264 18 292 70
1164 165 28 160 16 155 3 161 4 176 12 183 3
215 147 12 162 11 163 11 157 15 199 12
106 131 5 138 39 147 40 154 7 160 4 162 8
268 128 33 191 24 151 2 188 21
248 150 56 194 5 163 12 157 31 174 82 272 5
594 155 1 173 6 182 1 183 8 189 1 193 1 204 2
285 172 6 189 5 196 1 204 7
236 194 2 171 82 272 29 203 57
620 205 14 196 11 177 4 265 2
310 167 12 183 1 161 14 181 1 182 12 192 3 197 1
769 187 5 205 1 186 7 196 1 175 4
298 141 33 144 16 179 18 184 11 267 3 274 35
443 178 18 184 8 192 6 274 16
169 166 43 136 63 185 65 195 30 264 53
684 184 13 158 11 161 4 176 1 192 4
553 172 1 183 9 176 12 193 3 197 11
446 155 9 167 3 172 8 176 1 182 9
1198 144 4 164 1 178 11 158 4 179 8 181 13 192 10
420 137 41 291 335 136 240 180 65 195 30
841 187 2 156 7 189 2 177 7 196 3
1125 160 7 154 20 156 3 177 5 186 2 205 8
1084 151 3 170 21 146 7 159 4 152 12 190 24
424 155 3 156 5 172 1 173 5 186 2 196 1
346 159 18 188 24 201 6
196 124 13 128 18 126 30 170 24 240 1
1217 184 10 181 4 176 3 179 6 197 9 268 11 274 11
681 172 1 182 3 197 3 204 4 206 7 268 3
700 150 6 145 45 142 1 159 13 171 5 174 2 201 25 203 38 232 33 273 32
494 291 32 180 30 185 30 264 14 259 14
479 189 1 186 3 173 1 204 13 175 11 177 1 265 8
1147 176 1 182 11 193 3 192 9 268 10
151 134 83 135 17 143 19 267 48 277 57 292 73
183 162 16 168 12 154 5 157 42 202 38 205 5 272 2 275 1
39 272 34 203 21 286 30
675 159 11 194 25 190 6 273 34 285 10 294 16
381 199 38 205 16 265 11 266 19 275 32
166 194 38 272 4 174 57 200 21 269 17 273 7 286 8
523 172 2 173 7 193 4 196 13 206 11 265 3
524 154 9 187 8 199 5 175 14 177 1 202 16 265 1
673 193 7 204 11 265 19 268 23 281 4
167 54 39 57 7 68 2 70 43 75 1 211 63 216 1 222 12 226 7
92 76 23 75 35 213 44 222 51 234 13
51 56 29 77 16 82 72 83 2 131 14 229 79
308 79 15 80 9 81 16 219 2 217 38 223 15
135 54 2 73 24 207 63 84 24 216 42
136 73 7 69 16 239 1 84 27 215 25 216 19 228 9
63 74 61 76 11 82 14 131 1 208 44 234 68
281 78 14 219 24 221 17 224 3
87 212 25 216 5 241 7 227 27 225 9 228 29
49 207 1 211 42 212 19 84 14 215 5 225 35 226 44
197 83 16 79 12 210 38 223 13 229 58 232 6
378 239 83 227 46 228 39
587 78 1 81 31 214 24 210 2 223 20 224 12
374 134 42 225 41 226 4 241 55
529 214 17 233 3 133 13 224 26
231 207 12 75 24 208 51 226 32 234 1 236 10 238 59
70 219 20 210 15 217 13 224 18 230 16 232 31
218 214 3 219 12 133 20 221 26 223 18 230 13
167 216 35 220 41 226 29 241 8 215 9
56 207 7 222 32 216 44 134 29 135 42 220 4 225 29 238 7
69 239 3 241 68 136 67 215 27 218 46 228 19
602 239 9 212 9 227 19 215 29 218 39
220 209 79 83 10 217 58 131 20 150 44 232 38
114 133 39 145 11 224 13 223 16 232 51
161 135 12 235 35 236 21 238 44
109 217 6 229 38 150 47 145 8 230 51 194 33 223 31
749 127 28 132 16 133 32 221 3
378 213 68 208 13 222 1 131 48 140 29 236 45
96 135 21 149 24 231 35 139 29 236 19
210 222 10 140 16 234 45 231 21 235 19 238 8 139 21
481 120 633 86 28 137 154 111 234 291 271
61 222 59 135 22 226 7 231 44 236 8
452 55 122 137 9 69 50 136 106 212 1 218 83 227 3 228 9
90 125 12 126 28 191 1
237 134 33 166 43 220 55 136 5 215 7 225 8 227 68
148 292 17 259 134 250 53 287 102 344 199
249 245 32 246 24 247 23 249 20 297 42 305 1
369 250 4 257 6 262 47 298 80 300 37 306 45
284 243 32 249 21 254 42 304 4 305 59
142 243 24 247 15 248 41 249 36 251 26
531 243 23 246 15 248 13 297 9 299 20 302 9 303 22 306 27
172 246 41 247 13 257 48 306 22 251 6 252 23 255 10
433 243 20 245 21 246 36 251 31 254 31 261 21
308 292 52 277 82 242 53 244 4 262 37 298 22 318 98 344 53
145 246 26 249 31 248 6 252 28 261 7 320 35
240 248 23 251 28 255 42 320 30
109 257 53 262 50 256 36
215 245 42 249 31 258 10 261 22
201 257 20 248 10 252 42 256 35 260 6 315 54 320 11
267 257 6 262 24 255 35 253 36 260 63
463 244 6 248 48 253 53 255 20 256 6 262 13 306 43
252 254 10 261 56 263 24 316 24
211 291 299 264 43 195 14 242 134 287 50 344 133
227 262 20 255 6 256 63 313 79 315 40 326 13
49 249 21 254 22 251 7 258 56 316 18 320 57
73 250 37 244 47 257 13 253 50 256 24 260 20 313 1 318 48 322 1
417 258 24 316 14
171 166 18 292 56 180 53 195 14 259 43 287 38
707 205 1 204 3 196 8 175 2 202 11 206 19 266 20 281 14
615 265 20 202 19 275 29 281 3
231 198 48 143 67 141 1 178 3 274 3 277 25 279 59
797 193 3 192 11 197 10 274 12 206 23 271 4 276 1 281 2
70 203 17 273 48 286 25 270 22
51 273 3 286 30 294 9 269 22 304 21 283 25
303 268 4 281 38 303 2 276 35 278 12 282 11
227 171 5 199 2 157 13 174 29 200 34 203 4 275 10 284 11 286 26 304 8 305 29
351 194 32 201 34 203 7 269 48 270 3 294 11
847 178 35 267 3 192 11 179 16 268 12 276 52 279 11 280 6
385 199 1 272 10 202 32 266 29 281 14 284 55 293 9
1075 274 52 268 1 271 35 280 31 282 17
549 198 57 292 34 267 25 250 82 279 21 298 77
1131 302 7 303 20 271 12 282 14 295 10
210 267 59 274 11 277 21 298 32 300 10 280 52
187 274 6 300 34 279 52 276 31 282 13 296 1
165 265 14 268 2 206 4 275 14 266 3 271 38 293 19 303 12
915 271 11 276 17 278 14 280 13 295 2 296 22
76 294 23 304 13 270 25
766 272 11 275 55 297 2 305 55 293 28
279 201 10 294 25
123 272 26 203 8 200 30 269 25 270 30 304 28
114 292 54 264 38 259 50 242 102
267 299 6 302 5 289 4 290 4 301 1
823 296 12 288 4 290 6 301 15
757 302 4 295 7 296 1 288 4 289 6
374 120 11 137 54 237 271 185 335 195 32 259 299
132 134 16 166 70 198 73 242 17 250 52 264 56 277 34 287 54
102 275 9 281 19 297 21 303 24 284 28
58 201 16 273 11 285 25 270 9 283 23
1350 302 4 278 10 282 2 290 7 296 7
853 300 11 282 22 280 1 295 7 289 12 290 1 301 5
271 243 42 247 9 284 2 293 21 303 16 305 33
119 277 77 250 22 244 80 279 32 300 1
606 247 20 306 17 288 6 301 17 302 10
375 244 37 298 1 279 10 280 34 296 11 301 26 306 5
591 300 26 306 15 299 17 296 5 288 1 289 15
384 247 9 299 10 278 7 288 5 290 4 295 4 303 10
110 281 12 247 22 297 16 302 10 271 2 278 20 293 24
80 272 8 286 28 245 4 305 24 270 21 283 13
696 272 29 243 1 245 59 297 33 284 55 304 24
237 247 27 244 45 257 43 300 5 248 22 299 17 301 15
320 326 47 321 18 338 61
804 338 21 309 110 311 85 312 25
248 344 11 326 59 338 5 308 110 310 124 312 74
189 344 24 318 90 326 32 322 14 309 124 323 42
397 338 2 308 85 312 64 339 70 340 3
79 344 57 308 25 309 74 311 64 327 166 340 21
696 262 1 260 79 314 13 317 19 322 39 326 33
580 313 13 322 12 317 7
65 255 54 320 24 260 40 321 90 326 7
59 261 18 258 24 263 14 319 41
342 313 19 326 7 322 2 323 21 314 7
639 250 98 344 98 262 48 310 90 322 51
104 316 41 324 21
99 251 35 252 30 255 11 261 57 315 24 321 8
53 320 8 315 90 326 36 307 18
498 262 1 318 51 313 39 310 14 314 12 317 2 323 28
95 326 16 322 28 310 42 317 21
183 319 21 325 36
541 324 36
470 260 13 315 7 313 33 307 47 309 59 310 32 317 7 321 36 323 16 338 26
171 344 171 312 166 340 62 345 107
168 331 1 333 101 334 23 346 91
137 345 74 330 98 335 2
172 345 27 331 64 346 4 329 98 335 85
269 328 1 330 64 332 31 333 79 335 17 337 22 346 1
852 331 31 333 13 336 38 337 32
369 328 101 331 79 332 13 334 38 336 22
72 328 23 333 38 336 56
135 331 17 329 2 330 85 337 41 347 57
227 333 22 334 56 332 38 337 9
212 331 22 335 41 332 32 336 9
320 326 26 307 61 308 21 309 5 311 2 339 67 341 12 342 35 343 47
203 338 67 311 70 340 49 341 64
125 311 3 312 21 339 49 327 62 341 27 345 79 346 52
237 338 12 339 64 340 27 346 2 342 80
844 338 35 346 71 341 80 343 1
146 338 47 342 1
74 259 133 242 199 250 53 309 11 310 24 312 57 318 98 327 171
260 340 79 327 107 329 74 330 27 346 18
96 340 52 345 18 328 91 331 1 330 4 341 2 342 71
81 335 57
