156 436 11
665 9 712 97 93 127 1116
172 15 1 18 48 152 25 153 1 154 18 155 55
956 4 8 5 8 8 36 14 23 16 19 17 33
618 3 8 7 49 14 78 17 1 19 71
1283 15 20 3 8 8 52 16 59
1014 10 3 11 2 13 8 29 12 35 5 151 1
524 4 49 14 34 10 44 12 39 13 1 19 49 21 67 123 21 124 12
1205 15 8 3 36 5 52 14 21 150 67 156 21
713 1 712 20 128 35 135 97 37 101 4 112 28
636 7 44 6 3 13 59 21 44 29 20
801 6 2 12 40 35 37 151 36
806 7 39 11 40 13 7 35 24 151 28 20 75 36 59 108 6 123 23
731 7 1 6 8 10 59 12 7 151 57
939 3 23 4 78 8 21 7 34 124 68 132 27 156 50
101 2 1 5 20 8 8 16 1 17 5 18 55 150 26 152 51
376 15 1 3 19 5 59 17 73
1010 15 5 3 33 4 1 16 73 19 46 30 1 32 109
36 2 48 15 55
853 4 71 17 46 7 49 21 3 22 21 23 35 32 53
633 9 128 35 11 12 75 36 82 108 77 112 57
493 7 67 19 3 10 44 29 11 23 76
602 19 21 32 35 23 69 24 10 26 54 27 57 33 31
793 19 35 29 42 35 115 21 76 22 69 27 74 38 10
635 32 14 22 10 25 24 28 50 31 29 33 26 34 62
492 30 34 24 24 28 4 31 16 34 26
253 22 54 27 1 33 40 37 36 38 16
830 22 57 23 74 26 1 38 97
523 24 50 25 4 31 50
867 6 12 10 20 21 11 23 42 35 54
412 17 1 25 34 31 57 32 107
596 30 57 32 25 24 29 25 16 28 50
832 17 109 19 53 30 107 22 35 24 14 31 25
310 22 31 24 26 26 40 37 32
327 24 62 25 26
123 9 135 6 5 11 37 29 54 12 24 20 11 23 115 36 26
676 35 26 12 59 20 82
518 26 36 33 32 38 27
602 23 10 26 16 27 97 37 27
576 41 28 45 82 47 67 83 28 91 87 92 55
212 45 57 92 38 49 37 53 16 54 8 81 51
501 39 28 87 34 90 7 91 9 92 11
260 49 20 81 26 43 2 44 29 46 1 74 8 77 45 78 49
199 42 2 44 123 46 116 70 25
385 49 49 42 29 43 123 50 37 60 84 70 25
233 39 82 40 57 47 89 54 10 57 45 92 5
339 42 1 43 116 68 38 70 6 78 101
213 39 67 45 89 55 59 57 10 61 212
942 60 28 52 9 56 219 58 235
77 40 37 42 20 44 49 50 58 53 11 81 26
578 49 58 53 46 44 37 51 29 55 8 60 60
399 50 29 60 177 55 91 61 70 56 35
650 48 9 56 12 58 6 59 27
528 40 16 49 11 50 46 54 18 55 27 57 38
79 45 10 40 8 53 18 57 10
604 47 59 53 27 50 8 57 9 51 91 61 69
974 60 81 61 370 48 219 52 12 51 35 59 188
199 45 45 47 10 53 38 54 10 55 9
367 70 60 60 36 48 235 52 6 59 45 62 255
967 52 27 56 188 58 45 62 183
409 44 84 70 224 50 60 48 28 51 177 56 81 58 36
156 47 212 55 69 51 70 56 370
533 70 52 58 255 59 183
522 92 21 87 7 73 10 76 14 80 30 106 12 115 11 119 55 122 56
658 101 64 112 71 68 26 65 2 66 25 67 3 69 18
517 101 26 64 2 69 40 109 15
696 112 85 77 62 78 28 68 92 64 25 67 1 113 10
387 112 2 64 3 66 1
409 46 38 78 16 70 163 64 26 66 92 69 63 104 30
924 68 63 64 18 65 40 104 57 109 9
350 43 25 44 25 46 6 58 60 60 224 62 52 68 163 104 1330
653 76 7 115 44 75 1 79 18 116 27
701 81 41 74 65 73 30 120 59
252 92 57 81 33 63 10 72 30 119 35 120 19
636 81 11 42 8 72 65 77 81 113 47 120 9
687 76 13 80 16 71 1 79 23 84 1
586 63 14 71 7 75 13 80 25 115 16
555 42 45 74 81 66 62 78 63 113 72
1210 42 49 46 101 77 63 66 28 68 16
505 71 18 75 23 84 26 116 1
502 87 37 63 30 76 25 75 16 84 4 86 17 88 5
266 92 35 40 51 49 26 42 26 72 41 73 33 74 11
237 83 115 116 25 114 39 118 4
583 39 28 82 115 85 81 91 6 116 16
386 80 4 75 1 79 26 116 19 85 26 86 16
699 83 81 91 11 116 6 84 26 86 50
555 91 6 90 44 80 17 84 16 85 50 88 13 89 16
684 41 34 92 19 63 7 80 37 88 13 89 4 90 3
785 87 13 80 5 86 13 89 4
307 87 4 90 19 86 16 88 4
548 41 7 91 60 87 3 86 44 89 19
621 39 87 41 9 83 6 85 11 86 6 90 60
455 39 55 41 11 45 5 40 38 63 21 73 57 81 35 87 19
1021 106 19 100 16 110 36 131 18 134 13 136 23
805 96 1 99 6 139 2 148 6
645 143 4 146 3 149 2
690 94 1 99 2 103 2 139 3 146 5 147 4
676 1 93 9 37 101 35 105 40 127 57
908 100 26 99 4 103 7 135 20
674 100 4 136 7 94 6 96 2 98 4 103 4 148 1
1237 106 32 119 2 93 16 98 26 99 4 102 9 117 17 135 24 136 15
638 9 4 97 35 64 64 65 26 104 24 105 45 109 25 112 10
667 123 28 124 33 113 16 120 50 100 9 135 29 117 58
1330 96 2 99 4 98 7 135 1 147 6
206 127 1132 101 24 70 1330 68 30 69 57 109 6 105 91
763 97 40 127 98 101 45 104 91
435 63 12 93 19 100 32 107 10 110 49 119 19 121 7 122 55
771 154 25 106 10 114 50 118 15 110 11 134 40 121 28 129 70
814 12 6 123 89 20 77 112 53 111 36 113 83
850 101 25 65 15 69 9 104 6
620 106 49 93 36 107 11 134 23
838 123 12 108 36 113 42
477 9 28 20 57 101 10 64 71 66 85 67 2 108 53 113 1
976 123 8 112 1 108 83 74 47 77 72 66 10 102 16 111 42 120 9
754 82 39 107 50 118 62 129 5
472 63 11 76 16 71 44 116 1 118 7 121 34 122 18
277 83 16 115 1 71 27 79 1 82 25 84 19 85 6 118 10
391 119 66 120 11 100 17 102 58
54 115 7 116 10 82 4 114 62 107 15 121 55
326 63 55 73 35 106 19 100 2 117 66 120 17
313 74 9 73 19 119 17 113 9 72 59 102 50 117 11
241 106 7 115 34 122 55 118 55 107 28
738 63 56 106 55 115 18 121 55
735 7 21 12 23 102 28 108 89 111 12 113 8 124 111
805 14 68 7 12 123 111 102 33 132 18 135 36
754 150 41 156 45 131 17 128 29
923 128 1 130 4 133 4 137 1 140 1 141 8
567 1 1116 97 57 104 1132 105 98
696 156 6 132 8 131 4 125 29 126 1 130 28 138 1 141 1
173 154 55 114 5 107 70
974 128 28 126 4 133 12 137 1 138 13
360 153 17 150 23 93 18 125 17 128 4 134 49 136 8 138 29
1054 14 27 124 18 156 35 128 8 135 19 141 8 145 31
783 126 4 130 12 137 12
600 153 38 154 39 93 13 110 23 131 49 107 40
987 124 36 132 19 100 24 146 2 103 1 147 7 98 20 102 29 145 25
760 93 23 100 15 131 8 99 7 138 22 148 6
660 126 1 130 1 133 12 138 7 140 2 142 7
1177 131 29 136 22 139 2 148 4 128 1 130 13 137 7 142 5
773 94 2 96 3 138 2 140 1 142 4 144 3 146 1 148 5 149 1
843 139 1 126 1 137 2 141 2 142 5 144 4
875 132 8 143 1 128 1 126 8 140 2 144 4 145 2
527 139 4 137 7 140 5 138 5
974 95 4 141 1 144 3 145 8 146 2 149 1
942 139 3 143 3 149 4 140 4 141 4
938 132 31 143 8 146 4 135 25 141 2
758 96 5 139 1 95 3 143 2 135 2 145 4 147 5 149 4
987 96 4 146 5 103 6 135 7
782 136 6 94 6 99 1 139 5 138 4
755 139 1 95 2 143 1 146 4 144 4
1027 15 26 152 26 153 24 8 67 125 41 131 23 156 1
713 6 1 11 36 13 57 12 28
246 2 25 15 51 150 26 153 32
549 2 1 152 32 131 17 134 38 150 24 154 9 155 42
266 2 18 153 9 107 25 129 55 134 39 155 51
258 2 55 153 42 154 51
612 8 21 14 50 150 1 125 45 128 6 132 35
