146 395 11
428 2 3 3 13 5 24 10 19 13 14
190 1 3 3 15 5 15 9 22 29 21 32 24
639 1 13 2 15 9 14 13 18
626 5 13 10 18 7 9 11 14 14 8
641 1 24 2 15 4 13 10 1 11 16 32 20
240 10 30 13 11 8 17 12 16 18 20
488 4 9 11 8 14 8
539 6 17 12 16 16 14 18 25 21 24
822 2 22 3 14 13 22 12 143 19 98 29 85 30 7
562 1 19 5 1 4 18 6 30 13 8 14 15 18 5
1028 5 16 4 14 7 8 14 15 17 8
390 13 18 9 143 6 16 8 16 15 137 21 15
569 1 14 3 18 10 8 6 11 9 22 12 18
647 10 15 4 8 7 8 11 15 17 33 18 13
794 12 137 21 32 20 144
204 8 14 18 11 21 19 24 36 85 18
250 11 8 14 33 18 22 23 46
212 10 5 14 13 6 20 8 25 16 11 17 22 23 1 24 9 86 14
822 9 98 25 31 26 63 28 37 30 5
628 21 3 15 144 85 26 91 58 94 30
459 8 24 12 15 16 19 15 32 20 3 85 4
583 24 27 86 27 87 16 90 19
498 18 1 17 46 86 35 88 37
532 18 9 16 36 22 27 85 16 86 6 90 11
798 19 31 26 32 27 23
487 19 63 25 32 27 21 28 73
204 25 23 26 21 28 12
684 19 37 30 117 26 73 27 12
236 2 21 9 85 30 46 31 68 32 25
542 9 7 29 46 19 5 28 117 31 69
570 29 68 32 6 30 69
324 2 24 5 20 29 25 31 6
192 34 19 38 19 44 6 58 13 123 8
1060 33 19 46 10 57 11 58 4 107 23 123 14
1043 46 15 57 1 36 6 40 1 47 11 124 3
593 35 6 37 5 40 11 41 4 47 4 49 4 121 1
863 36 5 41 4 49 6 50 1
455 33 19 44 8 45 20 61 1 123 19 125 10
127 43 35 62 8 115 38
545 35 1 36 11 108 3 121 5 124 11
351 36 4 37 4 50 4 120 7 121 5
734 45 26 125 6 51 1 54 21 56 27 110 7 119 1 126 11
413 39 35 48 17 53 7 62 19 64 1 101 4 103 34 115 21 118 8
745 33 6 38 8 52 1 58 15 60 10 61 22
298 38 20 42 26 51 11 61 16 125 13
1181 34 10 35 15 57 12 107 3 124 1
747 57 16 35 11 36 4 49 16 59 8 63 6
1005 50 6 43 17 120 10 53 27 118 16
684 36 4 47 16 37 6 50 19 59 1
871 37 1 41 4 49 19 48 6 53 11 59 12 120 2
208 45 11 61 21 42 1 56 13 69 17 81 18
356 44 1 58 20 57 9 60 20 63 16
762 50 11 43 7 48 27 59 23 64 27 74 3
399 42 21 56 2 79 11 119 24
697 110 6 119 8 126 22 100 29
122 42 27 51 13 54 2 67 2 69 19 79 22
959 34 11 58 9 46 12 35 1 47 16 52 9 63 11
340 33 13 34 4 44 15 52 20 57 9
708 47 8 49 1 50 12 53 23 63 6 68 15 74 20 76 3
801 44 10 61 2 52 20 63 7 70 12 81 18
115 38 1 44 22 45 16 51 21 60 2 81 7
417 39 8 43 19 64 41 73 25 82 10
609 57 11 47 6 52 16 60 7 59 6 70 4 72 23 76 13
974 43 1 62 41 53 27 74 6 80 20 82 12
517 74 8 68 1 66 2 75 8
732 68 8 65 2 75 7
236 56 2 69 29 79 20 131 17 132 27
748 59 15 74 4 65 1 66 8 75 1 76 13
889 51 17 56 19 67 29 81 12 131 10
547 60 12 63 4 81 7 72 16 78 18 84 19
476 76 24 75 11 77 17 130 22
396 63 23 76 21 70 16 84 16 130 5
298 62 25 82 1
776 53 3 64 6 59 20 65 8 68 4 75 1 77 11 80 2
628 74 1 68 1 76 1 65 8 66 7 71 11 77 15
741 59 3 63 13 68 13 71 24 72 21 75 1 130 6
549 74 11 80 21 75 15 71 17 130 7 133 20
392 81 28 70 18 131 5 83 29 84 1
555 54 11 56 22 67 20 132 4
467 64 20 74 2 82 11 77 21 133 20
286 61 7 51 18 60 18 69 12 70 7 78 28 131 5
585 62 10 64 12 73 1 80 11 133 21
342 131 13 78 29 84 11 135 24 136 6 137 4
310 70 19 72 16 78 1 83 11 130 3 136 33
698 16 18 21 4 20 26 24 16 90 28 91 32 97 5
273 18 14 24 6 23 35 22 27 87 3 88 2 98 22
1016 86 3 22 16 90 8 98 22
565 23 37 86 2 89 26 98 32 101 32 103 1
501 88 26 115 18 101 27 99 23
759 24 11 85 28 22 19 87 8 97 31 98 5 102 32
1064 20 58 85 32 93 4 94 77 97 8
148 94 52 93 25 95 53
292 91 4 94 7 97 39 92 25 95 10 96 2 105 17
574 20 30 91 77 92 52 93 7 95 15
358 94 15 93 10 92 53 96 63
485 100 49 93 2 95 63 105 11
660 85 5 91 8 90 31 123 11 93 39 102 23 105 19
748 86 22 87 22 90 5 88 32 103 1 102 25 106 1
322 115 34 89 23
986 110 29 55 29 96 49 105 2
308 88 32 43 4 115 10 89 27 103 33
1041 90 32 123 2 97 23 98 25 104 52 106 10
313 88 1 43 34 101 33 98 1 106 41 117 12 118 2
1181 123 6 107 6 102 52 106 28 112 5 116 22 117 2
462 123 31 125 18 110 10 100 2 97 19 93 17 96 11
722 103 41 98 1 102 10 104 28 117 18
1294 34 23 123 17 46 3 104 6 116 28 124 10
607 40 3 124 2 121 1 109 2 111 1 114 1 127 1
437 108 2 111 1 122 1 127 2
656 125 29 42 7 55 6 100 29 105 10 126 5
943 108 1 112 1 109 1 114 5 122 6
1012 124 3 104 5 117 14 111 1 113 1 114 7 116 17 122 1
638 118 17 117 20 112 1 122 7
678 124 4 108 1 112 7 111 5
702 39 38 43 21 89 18 99 34 101 10
483 107 28 124 3 104 22 112 17
954 103 12 118 4 106 18 104 2 112 14 113 20
425 43 8 120 10 48 16 103 2 113 17 117 4 122 4
1010 42 1 54 24 55 8 126 16
690 41 7 121 5 50 2 48 10 118 10 122 1
273 36 1 40 5 41 5 108 1 120 5 122 2 127 5
567 121 2 120 1 118 4 112 1 109 1 111 6 127 4 113 7
491 33 8 34 14 38 19 97 11 102 2 104 6 105 31 107 17 125 6
689 46 1 107 10 35 3 40 11 108 2 112 3 114 4 116 3
432 38 10 123 6 45 13 42 6 105 18 110 29
590 42 11 110 5 119 16 55 22
473 121 5 108 1 109 2 122 4
143 129 50 143 27 144 27 145 67
115 128 50 143 40 146 37
314 76 6 72 5 84 3 71 22 77 7 133 10 134 10 136 21 141 27 142 16
152 69 10 81 5 67 17 78 5 83 13 132 6 135 28 138 26 139 9
819 79 4 67 27 131 6 138 20
427 82 21 80 20 77 20 130 10 142 15
313 130 10 136 27 137 26 140 22 141 16
229 131 28 83 24 137 20 139 30
166 84 33 130 21 83 6 134 27 137 7
201 83 4 135 20 136 7 134 26 139 12 140 25 144 1
424 131 26 132 20 146 21 139 15
365 131 9 135 30 137 12 143 5 144 23 146 36 138 15
177 137 25 144 30 145 36 134 22 141 2
250 130 27 145 31 134 16 140 2 142 46
340 130 16 133 15 141 46
398 128 27 129 40 139 5 144 17 146 20
92 137 1 128 27 143 17 139 23 140 30 145 1
237 128 67 144 1 140 36 141 31
463 129 37 143 20 138 21 139 36
