217 585 11
200 4 356 2 253
385 5 165 4 374 1 253 3 334
26 5 563 2 334
265 5 236 2 374 1 356
159 7 370 3 563 6 445 4 236 2 165
102 5 445 7 136 10 220
182 5 370 6 136 10 449 13 108 8 597 15 50
23 7 597 12 427 15 260 19 208
31 11 288 10 150 14 14
58 6 220 11 249 13 200 7 449 14 50 9 150
85 9 288 14 347 10 249
268 8 427 29 40 36 11 23 107 18 71 19 477 20 158
49 10 200 16 191 14 137 24 106 7 108 17 136 15 333
168 11 347 10 50 9 14 16 293 13 137
66 13 333 7 50 8 260 17 136 26 94 23 83 19 5 22 234 21 81
183 25 237 14 293 24 133 13 191
71 24 271 13 136 32 16 15 136 26 128 30 143
641 22 51 19 239 20 281 12 71
313 8 208 15 5 18 239 22 250 12 477
402 21 77 23 362 18 281 22 28 12 158
633 15 81 23 177 22 124 20 77
206 15 234 21 124 18 51 19 250 20 28
286 15 83 26 151 29 356 27 137 21 177 12 107 20 362
16 16 133 17 271 13 106 25 245 32 96
87 16 237 24 245 35 135 32 223
860 17 128 15 94 23 151 30 104 27 123 28 69
661 26 123 29 204 23 137 28 35
540 26 69 29 10 27 35 33 62 30 38 31 16
682 31 200 36 421 27 204 23 356 28 10 12 40
611 32 182 17 143 26 104 33 81 28 38 34 69
1006 29 200 36 74 33 93 28 16 34 123
311 24 96 25 223 35 253 17 16 34 192 30 182
470 28 62 31 93 30 81 34 22
127 35 100 32 192 36 216 33 22 31 123 30 69
272 37 499 25 135 36 499 32 253 34 100
43 38 617 37 18 35 499 29 421 12 11 34 216 31 74
67 38 507 39 554 36 18 35 499
37 39 789 37 507 36 617
91 38 789 37 554 40 895
234 39 895 42 393 56 217 48 54 45 1063
152 42 349 43 494 44 15
122 45 252 40 393 44 393 41 349
75 41 494 49 35 44 88 46 494
152 42 393 41 15 49 351 47 15 43 88 50 173 45 21
19 42 252 40 1063 44 21 53 532 50 110 48 568
146 52 369 51 139 49 142 47 52 43 494
117 52 144 55 249 49 297 46 52 50 143 44 15
120 40 54 53 389 45 568 54 126 56 1006 68 179 61 211 58 79
105 47 297 44 351 46 142 43 35
70 55 105 47 143 44 173 53 256 45 110 57 243 54 94
153 52 397 55 125 59 500 60 22 46 139
134 51 397 55 84 47 144 46 369
82 50 256 54 249 45 532 48 389
58 53 249 50 94 57 135 48 126 58 258
142 62 275 52 84 60 19 51 125 57 45 64 106 47 249 50 105
60 40 217 48 1006 83 356 68 292 73 133
24 55 45 50 243 54 135 64 287 58 138 65 92
137 54 258 48 79 57 138 61 263 65 223
155 51 500 66 120 60 255 63 279
633 62 203 55 19 59 255 51 22 67 60 63 176
272 48 211 58 263 72 165 68 227 65 3 75 62
115 64 170 55 275 69 90 67 101 60 203
208 59 279 60 176 67 124 70 358 66 172
36 62 170 55 106 57 287 65 168 71 17 74 6 69 224
65 57 92 58 223 61 3 64 168 75 260 74 220
14 59 120 63 172 70 74 86 395
158 62 101 60 60 63 124 69 234 76 87 70 138 79 44
160 48 179 56 292 72 136 61 227 73 298
66 62 90 67 234 76 93 71 169 78 28 64 224
272 63 358 66 74 67 138 86 104 79 68 85 302
63 74 269 77 5 78 224 69 169 64 17
192 75 184 61 165 68 136 73 229 81 49
143 83 236 56 133 82 328 72 229 68 298 81 19
75 65 220 75 204 81 28 71 269 77 176 64 6
114 72 184 61 62 65 260 81 300 74 204
106 67 87 69 93 79 186 78 145 80 143 88 53
35 80 110 81 24 71 5 74 176 78 148 92 260
104 76 145 80 33 71 224 77 148 69 28
141 67 44 70 68 76 186 89 113 85 121 88 49
103 76 143 78 33 77 110 88 173 102 28 92 194
340 105 37 84 240 82 163 72 49 73 19 75 300 99 307 74 28 77 24 92 4
375 83 206 84 142 73 328 81 163
489 56 356 105 481 84 231 82 206 73 236
1025 83 231 105 319 82 142 81 240
337 70 302 86 6 89 40 79 121 87 286
44 66 395 70 104 93 327 87 208 85 6
296 86 208 89 41 85 286 91 21 93 92 90 185
1022 76 53 80 173 89 18 79 49 102 38 97 149 91 104 96 24
1073 85 40 87 41 91 121 79 113 88 18
1213 91 90 87 185 93 61 94 157 97 75 100 8
906 89 121 88 104 97 0 87 21 90 90
266 80 194 81 4 77 260 104 241 102 0 99 194
71 86 327 108 470 106 4 98 109 87 92 94 10 90 61
740 103 44 98 121 93 10 95 23 90 157 100 52
573 106 6 103 37 109 47 102 3 94 23 101 34 96 28 100 11
566 88 24 102 175 101 66 97 94 95 28
819 88 149 91 0 90 75 101 12 96 94 100 79
1056 106 142 103 56 93 109 94 121
200 105 56 117 20 121 266 81 307 104 87 107 153 92 194
287 94 52 90 8 101 51 97 79 95 11
760 96 66 97 12 100 51 95 34
1127 80 28 104 87 107 7 92 0 88 38 110 176 109 12 111 69 95 3 96 175
39 106 5 98 56 95 37 94 44
613 107 231 102 87 92 241 99 87
218 83 481 122 780 84 319 121 100 99 56 81 37
290 108 27 112 125 93 4 98 142 103 5 95 6 109 29
656 117 124 104 231 111 200 102 7 99 153
57 129 236 130 85 116 286 114 205 93 470 106 27 112 25
761 112 18 106 29 110 54 113 46 95 47 102 12
387 113 39 115 164 109 54 102 176 111 15
156 120 88 117 104 125 160 107 200 110 15 115 223 102 69
503 114 40 108 25 113 87 106 125 109 18
610 114 112 112 87 110 39 115 48 109 46
381 116 155 108 205 115 55 113 112 112 40
222 120 1 116 180 114 55 110 164 113 48 111 223
540 120 314 130 239 108 286 115 180 114 155
52 123 65 125 214 121 238 111 104 107 124 99 20
183 119 324 132 241
119 118 324 132 110 129 472
220 130 158 116 314 133 275 125 141 115 1 135 2 111 88
334 122 125 105 100 124 65 128 84 117 238 99 266 123 217
245 127 398 124 384 105 780 121 125
155 134 173 128 120 117 65 121 217 131 210 125 27 137 133
479 122 384 127 115 121 65 126 118 128 248
73 120 141 117 214 131 171 133 42 111 160 123 27
129 140 31 127 205 124 118 134 174 128 152
198 122 398 140 635 139 179 124 115 126 205
615 124 248 126 152 134 94 121 84 123 120
190 119 472 132 45 142 387 146 211 108 236 130 37
538 142 132 129 37 120 158 143 162 149 370 108 85 116 239 135 95
149 136 110 133 118 125 171 123 210 137 149
553 118 241 119 110 148 318 129 45 146 153
286 138 224 120 275 131 118 136 64 125 42 135 19
69 140 130 139 193 126 174 147 112 137 202 128 94 123 173
202 141 189 138 210 120 2 133 19 143 258 130 95 144 2
111 141 175 138 153 131 110 133 64 137 177
208 134 202 150 33 147 280 141 102 131 149 136 177 123 133
44 141 44 136 153 133 224 135 210
171 157 721 140 670 127 179 147 142 134 193
61 139 670 127 635 134 130 126 31
455 150 323 136 175 137 102 138 44 144 59 135 189
72 146 159 129 387 145 294 130 132 149 104 151 43 152 73
772 149 131 130 162 135 258 144 62
142 150 77 156 288 141 59 155 100 151 140 143 62 149 84 135 2 159 22
420 148 128 142 294 146 126 153 75 152 396
74 148 181 132 153 142 159 145 126 129 211
99 157 356 139 142 167 36 164 57 171 138 134 112 150 113 158 168 137 280
217 132 318 153 299 145 128 146 181
179 142 104 151 408 143 131 144 84 130 370
142 158 287 156 81 144 77 141 323 147 113 137 33
147 155 313 142 43 144 140 152 95 149 408
152 155 198 142 73 145 396 151 95 153 93 154 313
334 148 299 145 75 152 93 166 168 154 70 165 207
835 155 4 152 313 153 70 161 169 165 57 160 171
107 144 100 151 313 159 202 152 198 154 4 160 146
121 162 11 150 81 158 97 168 241 159 88 144 288
107 139 721 172 641 171 57 147 356 175 129
255 164 256 162 65 150 287 156 97 147 168
747 156 88 168 114 155 202 170 191 144 22 161 20 163 241 160 40
392 155 146 161 154 154 171 159 40
481 165 145 163 258 160 154 159 20 154 169
55 167 97 164 169 168 189 156 11 173 26 158 65 177 88
496 170 124 176 218 161 258 165 208 159 241
179 167 246 158 256 162 169 147 57
431 166 400 153 207 176 27 161 145 163 208 154 57
140 153 168 179 224 176 146 165 400
106 164 246 162 97 177 133 147 36 171 309 174 82
57 162 189 156 241 173 202 159 114 170 46
9 170 208 178 7 184 155 183 238 176 189 189 169
61 168 46 173 231 177 118 159 191 169 208 176 175 178 17 163 124
117 157 57 172 250 167 309 147 138 174 334
130 157 641 171 250 175 661 174 5
102 162 26 168 202 177 236 170 231
58 172 5 167 82 171 334 177 3 175 29 178 170 180 340
81 157 129 172 661 174 29 181 674 182 66 180 72
433 170 175 166 146 184 274 169 189 179 264 163 218 165 27
34 167 133 162 88 173 236 174 3 178 322 170 118
330 177 322 170 17 174 170 169 7 183 376 180 197
29 166 224 184 349 176 264
76 174 340 178 197 175 72 183 75 182 410 187 18 191 162
90 175 674 186 347 182 124 185 178
525 175 66 181 124 180 410 188 29 187 328 185 109
110 178 376 180 75 169 238 190 172 189 26 191 247
48 169 155 176 274 189 329 179 349 194 132 193 13
248 181 178 188 74 182 109 186 169
371 181 347 188 9 185 169 192 474
418 195 303 180 18 188 67 192 243 182 328 191 60
385 187 67 182 29 185 74 192 44 186 9
14 184 329 169 169 190 188 183 26 194 326
41 189 188 194 241 191 280 183 172
112 195 100 180 162 196 387 187 60 190 280 194 3 183 247
442 199 86 195 275 188 44 187 243 186 474
79 205 416 197 475 201 230 184 13 194 64
11 197 535 198 12 196 20 184 132 193 64 190 241 189 326 191 3
308 200 29 199 577 198 17 192 275 196 341 187 303 191 100
76 198 392 195 341 194 20 191 387
24 201 153 198 169 194 535 193 475
23 200 175 197 169 201 307 195 17 196 392 194 12
102 200 292 204 294 195 577 192 86
48 195 29 198 175 199 292 204 243 202 194 201 21
60 200 21 202 220 203 262 205 10 197 153 198 307 193 230
158 200 194 204 387 201 220 203 24 206 448
441 202 24 207 350 206 285 201 262 205 2
34 200 243 199 294 202 387 211 202 206 50
170 210 152 207 256 203 2 193 416 201 10 209 244
153 202 448 211 55 204 50 207 148 203 285 208 270
44 206 148 203 350 205 256 209 327 208 58
53 213 235 214 461 210 299 212 28 211 59 207 58 206 270 209 241
91 210 306 207 327 205 244 208 241
68 205 152 212 502 209 306 208 299
14 215 313 214 412 204 202 208 59 206 55
20 216 592 213 34 210 502 208 28
60 216 277 217 320 215 119 212 34 214 267 208 235
14 215 79 213 267 211 412 208 461
19 217 282 213 119 211 313 214 79
16 212 592 213 277 217 44
21 216 44 213 320 215 282
