263 597 11
231 
95 
675 159 1490 73 184
199 9 677
229 60 729 86 392 6 531
80 5 531 86 473
693 11 399 20 570 19 326 25 85 22 79
52 15 406 14 0
103 15 347 4 677 14 47 24 293 21 452
280 13 379 11 590
568 10 590 19 0 7 399
166 85 194
350 10 379
159 15 473 9 47 18 284 24 313 8 0
109 9 347 8 406 14 473
1160 27 123 66 14 70 29 68 64
849 39 33 40 31 45 34
271 24 167 14 284 38 361
117 11 0 7 326 25 41
317 7 570 22 138 26 611 31 22 23 48
199 9 452 24 528 23 470 33 306 34 277
577 7 79 30 85 31 57 20 138 25 77
919 21 470 26 653 29 16 33 243 44 167 20 48 35 97 43 59
449 9 293 21 528 18 167 14 313 38 185 41 61 34 227
768 7 85 30 16 22 77 19 41 32 42
492 29 85 31 110 23 653 20 611
1480 66 150 62 242 16 123
574 48 72 46 70 51 51
771 26 85 23 16 35 103 31 114
745 22 85 31 66 32 32 25 16
982 30 66 22 57 26 110 29 114 20 22
266 30 32 25 42
1064 21 306 23 243 34 28 42 152 44 226 49 136 46 127
342 21 277 24 227 33 28 41 329 42 201
366 29 103 23 97 43 139
97 58 633 38 64 55 42 37 317
186 38 300 36 317 55 211 41 124 50 356
104 18 361 24 185 37 300 41 170 36 64
818 40 64 17 33 45 78 44 34
626 48 98 39 64 44 17 17 31
519 24 61 38 170 37 124 34 329 50 196 42 251
561 34 201 41 251 50 152 33 152 49 343 53 23
529 23 59 35 139 44 12 45 151
631 23 167 43 12 48 57 33 226 39 34 40 17 45 111 46 78
775 43 151 39 78 17 34 44 111
1029 48 83 33 127 44 78 28 70 49 18 51 154
911 61 1 57 112 62 182 54 132 53 82
737 40 98 44 57 28 72 46 83
749 42 343 33 136 46 18 52 47 51 112 53 245
47 55 205 69 24 37 356 41 196 56 352 42 152 53 56
923 28 51 46 154 52 95 54 71 49 112
105 51 95 49 47 54 95 53 34
1658 50 56 42 23 56 94 57 197 47 82 52 34 49 245 54 82
1069 47 132 52 95 51 71 53 82
505 58 323 36 42 37 211 69 209 50 205
1140 69 108 71 148 78 107 50 352 61 206 65 96 53 94 57 55
802 61 216 56 55 53 197 47 112
447 36 633 73 276 69 1120 55 323
483 
79 86 548 87 305 5 729
810 65 39 56 206 62 215 57 216 47 1
2177 61 215 27 242 65 36 47 182 66 98
862 66 111 65 41 64 201 76 88 82 52 70 78
1104 80 94 90 22 65 184 82 183 63 201
1332 71 241 61 39 56 96 80 74 62 36 66 72 64 184 63 41
1230 27 150 62 98 16 14 65 72 70 119 63 111
950 68 36 76 103 77 63 75 15
1116 16 64 67 36 70 27 75 58
296 58 1120 55 209 73 671 72 494 78 295 56 108 50 24
1340 16 29 66 119 68 27 76 38 63 78 75 63
1386 78 257 56 148 65 241 80 14
347 69 494 73 425 94 19 80 364 78 26 74 316
281 3 184 177 225 159 314 58 276 69 671 141 164 72 425 138 1060 136 39 74 108 129 80
328 72 316 73 108 124 143 94 92 129 162
926 68 58 76 66 67 15 70 63
1151 82 8 81 53 63 88 77 7 67 103 75 66 70 38
956 79 61 76 7 81 106 67 63
1097 69 295 72 26 71 257 56 107 80 267
893 89 65 77 61 81 12
1446 72 364 71 14 78 267 94 105 65 74 90 83 64 94
1107 89 69 79 12 76 53 82 105 77 106
1277 89 42 95 17 90 201 64 183 76 8 81 105 63 52
290 
578 86 558 85 13 92 606
472 84 13 92 777 12 194
103 60 548 5 392 6 473 84 558
516 60 305
1005 89 105 95 44 91 37 99 53
789 88 105 95 34 82 42 81 69 79 65
1014 95 122 103 2 94 229 80 83 82 201 64 22
876 99 64 88 37 100 88 101 16
433 85 777 84 606
424 96 93 119 303 158 183
848 72 19 124 71 74 92 116 37 103 204 80 105 90 229
1105 89 34 101 91 103 7 99 45 88 44 82 17 90 122
498 93 93 170 59 158 302 173 123
685 110 20 109 6 112 44 98 53 102 50 101 5
1099 101 43 97 53 100 84 102 28
1026 95 45 91 64 88 53 101 4
955 98 84 91 88 101 20
943 109 98 95 91 103 26 98 43 97 5 91 16 99 4 100 20
1031 108 28 113 35 112 9 98 28 97 50
1083 110 30 116 181 109 91 95 7 94 204 101 26 90 2
1013 114 0 120 32
943 107 179
1036 
1309 105 179 149 0
749 111 51 113 36 102 28
742 110 109 101 98 103 91 97 6
734 103 30 116 25 109 109 115 16 112 105 97 20
793 108 51 113 16 118 45 114 22
861 117 34 113 67 110 105 115 7 102 9 97 44
717 117 20 111 16 108 36 112 67 102 35 118 30
511 117 22 111 22 118 35 120 36 104 0
868 132 56 117 97 110 16 116 114 128 46 125 106 112 7
772 132 206 124 78 131 7 110 25 115 114 103 181 94 37
1139 112 34 113 20 118 67 115 97 125 28 114 22 120 5
889 117 67 111 45 113 30 114 35
435 93 303 145 259 158 391
681 117 5 114 36 104 32 125 43 127 29
1122 142 7 135 63 137 67 143 24 122 45
1038 135 36 133 57 137 9 121 45
1124 137 54 143 91
162 94 71 116 78 74 143 131 169 129 98 136 47
1023 117 28 115 106 120 43 126 51 128 44 127 10
804 130 53 128 76 127 49 125 51
731 120 29 126 49 130 37 125 10
905 132 20 134 121 115 46 135 85 133 6 126 76 130 16 125 44
338 73 80 124 98 74 162 136 93
1117 133 70 126 53 128 16 127 37
372 139 88 138 12 132 145 153 111 124 169 136 140 116 7
315 139 169 115 56 116 206 134 20 128 20 131 145
702 135 18 128 6 130 70 122 57
437 139 130 132 20 140 118 142 103 128 121 135 63
1063 134 63 142 32 128 85 133 18 121 63 122 36
813 141 175 138 42 73 39 124 47 131 140 129 93
963 123 54 143 36 121 67 122 9
700 177 228 141 188 154 1167 73 1060 153 51 136 42 131 12
719 134 130 140 99 132 169 153 117 131 88
797 156 43 162 37 139 99 155 19 161 108 153 20 157 82 142 41 134 118 152 4 151 51
952 138 188 73 164 136 175
1066 140 41 134 103 148 9 151 136 135 32 143 49 121 7
1143 148 111 142 49 137 36 123 91 121 24
121 
824 147 519 119 259 158 403 184 179 173 174 166 68
771 149 177
717 183 356 145 519 184 212
1168 142 9 143 111 151 35 152 71
746 107 0 146 177
1398 165 32 156 43 163 172 152 100
915 140 51 148 35 152 144 142 136
900 156 179 140 4 148 71 151 144 150 100
1111 139 117 138 51 155 40 154 162 157 159 140 20 131 111
509 177 696 193 32 160 517 162 483 169 7 138 1167 155 114 161 14 153 162
540 161 247 154 114 153 40 157 155 140 19
1172 150 43 152 179 163 157 140 43 162 157 169 170 164 23
1227 155 155 153 159 140 82
415 93 183 96 302 145 403 119 391 173 342
729 3 1490 177 904 202 748 73 314
1067 193 161 172 207 178 964 154 517 164 76 169 671
1157 162 321 155 247 154 14 140 108
879 156 157 169 641 154 483 161 321 140 37
1233 165 161 156 157 164 85 150 172
174 172 149 171 21 165 135 160 76 156 23 163 85 169 162
1314 171 164 164 135 163 161 150 32
312 190 236 191 83 180 181 175 323 145 68 184 338 173 271
678 168 54 175 263 174 241 180 106
1574 167 54 170 164 175 180
818 160 671 156 170 162 641 154 7 164 162
486 168 164 175 103 173 317 96 59
1145 172 133 165 164 164 21
630 160 207 164 149 171 133
794 170 317 175 82 96 123 145 174 158 342 166 271
513 181 347 167 241 180 304
350 167 263 180 97 170 103 168 180 166 323 173 82
128 182 444 208 513 222 343
847 202 480 159 904 138 228 154 696 193 1260 73 225 186 770
461 193 316 189 606 187 160 198 299 160 964
1113 185 87 187 197
362 181 253 167 106 174 304 191 281 175 97 166 181
530 174 347 180 253
1771 208 259 200 381 176 444 183 251
565 182 251 200 176 192 351 147 356 184 256
754 183 256 192 275 190 187 145 179 147 212 166 338
914 179 87 189 79 187 154 188 129 194 267
246 177 770 202 469 213 585 193 131
254 179 197 189 239 185 154 178 160
1259 201 351 185 129 194 174 203 25
1233 187 239 185 79 194 280 198 636 178 606
294 192 257 184 187 166 236 196 91 191 383
561 190 383 195 380 166 83 180 281 196 61
144 183 351 200 52 184 275 190 257 196 382
298 177 1260 186 131 218 198 220 67 213 974 198 465 178 316 160 161 154 32 226 447
363 201 228 189 280 185 267 188 174 198 208
330 204 448 191 380 196 327
176 192 382 200 308 190 91 195 327 191 61
975 199 364 224 59 219 432 233 0
241 218 724 207 252 193 465 201 447 189 636 194 208 178 299
954 197 364 224 164
786 182 381 183 176 208 683 192 52 196 308
304 207 41 205 519 198 447 194 228 188 351 203 155
571 177 480 159 748 186 469
1666 206 0 205 344 201 155 188 25
454 195 448
578 207 334 209 401 206 105 201 519 203 344
719 209 43 205 105 211 236 203 0
442 225 24 218 486 209 835 205 334 201 41 221 511 220 430 198 252
297 182 259 176 513 200 683 222 702
791 225 838 207 835 217 197 205 401 216 148 206 43 211 32 215 117
739 211 39 216 7 215 57
1046 209 32 206 236 210 39 215 211
590 253 164 256 765 254 73 242 820 251 98
121 186 585 240 386 193 974 239 51 226 323 214 790
1236 240 765 239 130 241 692 213 790
966 209 117 210 57 211 211 216 197
1492 209 148 217 164 210 7 215 197
1420 225 409 209 197 216 164
619 207 486 220 804 198 724 193 198
1038 197 432
325 218 804 207 430 221 320 226 921 193 67
295 248 19 225 192 207 511 220 320 247 1215 239 556 226 249 244 146
414 176 343 208 702 227 879
763 225 193 236 29 231 220 229 18
1422 199 164 233 282 197 59 234 89
652 248 261 217 409 209 838 230 462 223 193 207 24 221 192 231 289
754 220 921 193 447 239 564 221 249 213 323
603 222 879
484 238 42 229 40
690 238 166 230 59 228 40 236 45 231 173 223 18
107 248 516 225 462 245 309 238 137 237 204 231 209 229 59
684 225 289 230 209 236 26 223 220 229 173
1085 234 78 235 310 233 325
437 224 282 232 325 234 64 197 0
369 224 89 232 78 233 64
1050 232 310
439 231 26 223 29 229 45
229 245 113 246 135 238 68 230 204
545 237 68 230 137 228 42 229 166
275 226 564 221 556 244 51 243 586 241 61 214 130 213 51
354 242 550 213 386 214 765 249 295 241 10
1048 240 10 249 122 239 61 243 611 214 692
774 212 820 240 550 250 166 249 557 251 220
1144 249 168 239 586 244 184 241 611
143 250 669 249 650 247 875 239 51 221 146 243 184
148 248 504 246 283 230 309 237 113
493 248 528 245 283 237 135
627 248 1116 250 463 221 1215 244 875
114 247 1116 246 528 230 516 225 261 221 19 245 504
193 240 295 250 284 242 557 244 650 243 168 241 122
649 249 284 244 669 251 1318 247 463 242 166
643 256 32 252 1269 212 98 250 1318 242 220
186 256 534 251 1269 255 919
107 212 164 254 698 260 400
224 253 698 256 722 212 73 260 33 255 309 258 385
154 256 44 252 919 254 309 257 317 259 146 258 547
534 254 722 255 44 252 534 212 765 251 32
439 259 975 255 317 258 702 260 81
350 254 385 257 702 255 547 260 231
668 262 1062 257 975 255 146 260 390
225 253 400 261 490 262 158 254 33 257 81 259 390 258 231
368 263 734 262 59 260 490
439 263 390 261 59 260 158 259 1062
154 261 734 262 390
