301 826 11
339 2 105 6 139
122 1 105
492 6 74 5 36 123 1 127 62 131 60
89 5 55 130 22 133 96
54 6 51 3 36 4 55 127 1 130 41
173 1 139 3 74 5 51 131 56
79 17 40 47 56
89 47 23 22 43 37 8 190 31 195 35 196 2
308 22 13 190 9 12 15 24 24 44 5 174 14 194 21 197 24
257 14 4 26 20 40 23 189 35 191 23 192 32
193 26 16 189 18 15 35 23 36 193 11
171 9 15 15 26 20 24 23 27 24 31 197 1
272 14 7 19 31 21 5 27 25 185 36 187 28
308 10 4 13 7 27 45 40 7 187 14 191 48
111 12 26 197 38 11 35 23 2 176 26 178 1 193 5
272 18 24 42 34 45 17 64 9
34 7 40 29 17 47 9
979 19 1 16 24 33 40 45 18 64 2
193 13 31 18 1 21 21 25 35 33 4 45 23 56 13 185 3
343 12 24 24 4 23 2 34 36 41 29 48 2
321 13 5 19 21 27 39 30 19 35 4 56 28
241 8 43 9 13 37 10 43 25 44 37 190 13
93 12 27 26 13 11 36 15 2 20 2 34 11 46 29
243 9 24 12 31 20 4 41 16 44 28
340 19 35 185 12 42 23 45 7 186 26 188 13 198 20
84 10 20 11 16 23 13 28 10 40 22 46 26 189 23
380 14 45 40 7 13 25 21 39 35 23
38 26 10 40 35 46 15 51 28 52 25 73 5
970 17 17 47 11 38 35 50 33 53 11
208 21 19 56 17 35 25 49 30 58 8
192 44 7 41 28 48 5 32 28 54 23 69 14
195 44 13 43 24 31 28 69 7 75 16
676 19 4 18 40 64 9 56 38 60 21
66 23 11 20 36 39 27 46 7 48 17
61 40 40 21 4 27 23 30 25 55 10 58 17
329 42 53 64 8 72 56
72 47 3 8 8 22 10 38 46 43 32 53 2 57 26
241 47 29 37 46 29 35 53 14
155 34 27 48 25 46 23 51 22 79 19
434 10 23 14 7 26 22 27 7 28 35 35 40 52 1 55 7
229 24 16 44 16 20 29 31 28 48 10
303 16 34 25 23 36 53 45 14 64 20
233 22 25 37 32 44 11 32 24 57 5 75 15
148 22 37 9 5 24 28 31 7 32 13 41 16 43 11
1052 19 23 16 17 18 18 42 14 25 7
113 26 26 23 29 34 7 28 15 39 23 51 27
74 7 56 17 9 8 23 29 11 37 3 38 29 195 34
76 20 2 34 17 41 10 31 5 39 25 54 20 70 18 79 8
138 56 8 30 30 58 28 60 37 62 1 78 6
92 29 33 53 1 59 25 67 15 71 7 88 13
259 46 27 28 28 39 22 73 31 79 21 80 1
45 40 1 28 25 55 34 62 13 73 30
148 37 2 29 11 38 14 50 1 57 8 67 23 68 25
139 48 20 31 23 69 17 70 28 105 12
21 40 7 35 10 52 34 58 27 62 15
711 19 13 21 28 33 38 30 17 49 8 60 3
185 37 26 43 5 53 8 75 24 66 6 68 22
83 30 8 35 17 49 28 55 27 62 18
73 50 25 71 1 74 21
265 64 37 33 21 56 3 49 37 78 38 114 20 245 1
1379 67 22 68 13 77 6 82 26 85 16
78 52 13 73 14 49 1 58 18 55 15 78 24 80 1 102 34 118 1
168 72 52 84 47 94 2 116 38
414 16 9 18 2 42 20 33 9 36 8 60 37 72 1 84 36 114 30
77 81 3 87 36 89 16
504 75 5 57 6 68 17 76 19 85 14 86 32
257 50 15 53 23 61 22 68 1 82 4 88 26
189 53 25 57 22 67 1 61 13 66 17 85 12
134 31 14 32 7 54 17 75 20 86 26 105 11
239 48 18 54 28 79 34 105 30 233 19
99 50 7 59 1 74 28 88 17 89 5 90 19
92 64 1 36 56 63 52 84 3
24 28 5 51 31 52 30 62 14 80 46
209 59 21 71 28 89 8
389 43 15 32 16 69 20 57 24 66 5 86 7
620 66 19 85 9 86 4 100 14 104 19 113 7
652 61 6 82 20 85 4 99 2 104 4 107 16 111 12
280 49 6 60 38 62 24 102 29 245 45
175 48 8 51 21 39 19 70 34 80 37 228 36 231 3 233 1
71 51 1 73 46 79 37 62 1 118 45 231 12
85 65 3 87 21 89 23 92 4 93 23 225 11
1723 67 4 88 2 61 26 77 20 99 30
40 89 6 90 25 99 8 93 18 110 23
137 64 36 72 3 114 17 63 47 94 41
453 68 12 66 14 61 16 77 4 76 9 104 13
166 69 26 75 7 105 18 66 32 76 4 100 3 109 13
102 65 36 81 21 92 23
132 50 13 67 26 71 17 82 2 90 18 99 9
85 71 5 74 8 65 16 81 23 83 6 90 17 93 5
50 71 19 88 18 89 17 83 25 99 2
38 245 6 102 32 118 19 232 17 236 36
47 81 4 87 23 225 18 247 23
320 81 23 89 5 83 18 110 1 115 14 225 16 248 8
342 114 23 63 2 84 41 116 13
617 96 1 101 1 103 2
1067 113 4 95 1 101 12 103 1 108 1 117 12 119 2 229 4
461 108 1 119 1 98 2 106 2
434 104 1 107 10 111 5 119 6 97 2 106 8
324 88 9 77 2 82 30 90 2 83 8 107 1 110 19 112 2 223 6 237 13
123 76 14 86 3 109 30 113 22 235 13
985 104 11 113 11 95 1 96 12 103 8
20 62 34 78 29 245 1 91 32 118 21
626 104 1 95 2 96 1 101 8 106 7 108 4
1118 77 4 85 13 76 19 98 1 101 11 103 1 106 4 111 8 113 3
142 54 12 69 11 70 30 86 18 109 25 233 1 234 22
641 104 4 103 7 108 3 97 2 98 8
531 77 16 99 1 98 10 111 8 119 7 223 14
346 96 1 103 4 97 1 106 3 119 3
311 105 25 86 13 100 30 234 22 235 9
111 99 19 93 1 83 23 112 15 115 13
1242 77 12 104 8 107 8 98 5
103 99 2 110 15 115 16 230 2 237 20 240 2
823 76 7 100 22 104 3 96 4 101 11 229 17 235 14 244 4
30 64 30 60 20 84 17 94 23 245 44 260 17
83 93 14 110 13 112 16 240 12 248 16
254 63 38 94 13
1439 96 12 119 12 227 18 229 13
64 62 1 80 45 102 21 91 19 231 22 232 17 259 5
350 107 7 96 2 108 3 117 12 97 1 98 6 223 1 227 2
472 128 61 132 48 138 7
563 135 7 136 4 139 3 145 1
525 123 35 138 23 135 3 139 7 129 28 134 10 137 11
196 3 1 122 35 125 29 127 38 129 6 131 20 134 23 140 10
54 130 15 133 41 126 29 153 28
54 123 29 127 26 126 27 140 25 153 3
161 127 9 130 18 125 27 124 29 153 12
196 3 62 5 1 123 38 125 26 126 9 130 35
583 131 2 120 61 129 59 138 10
88 123 6 131 78 128 59 138 12 122 28
80 5 41 127 35 4 22 124 15 126 18 133 26
68 6 56 3 60 123 20 128 2 129 78
114 120 48 138 26 142 38 144 1
99 4 96 130 26 124 41 153 1 154 69 172 38
692 123 23 135 20 145 8 122 10 140 12 141 17 148 8
391 121 7 122 3 134 20 139 2 145 12
287 121 4 137 1 139 4 145 4
814 138 20 136 1 139 7 145 15 122 11 144 1
537 120 7 128 10 132 26 122 23 129 12 137 20 144 26
507 121 3 135 2 136 4 122 7 137 7
117 123 10 134 12 125 25 141 32 153 25
105 134 17 140 32 153 14 146 20 148 1 162 9 164 27
127 132 38 144 29 147 30 159 15
290 145 17 144 28 148 45 159 26
140 132 1 138 26 145 10 137 1 142 29 143 28 159 14
373 121 1 135 12 136 4 134 8 137 15 143 17 144 10 148 4
42 153 9 141 20 150 41 157 20 161 4 162 46
167 142 30 159 16 160 31
120 145 4 134 8 141 1 143 45 155 2 158 13 159 1 164 49
633 154 19 150 20 151 15 152 3 163 2
170 153 6 154 14 146 41 149 20 161 18 163 10
475 154 32 149 15 152 10 156 11 163 23
229 149 3 151 10 163 13
162 133 1 125 3 140 25 124 28 126 12 141 14 146 9 150 6 154 35
222 133 69 153 35 149 19 150 14 151 32 156 16 172 26
455 148 2 162 40 164 11 157 7 158 28 170 20 175 32 179 22
255 154 16 172 52 161 16 151 11 163 27 166 36 184 35
313 146 20 162 3 155 7 161 31 179 44 184 16
160 148 13 159 40 155 28 170 41 171 13
85 142 15 144 14 148 1 147 16 143 26 158 40 160 24 171 1
105 147 31 159 24 171 36
199 146 4 150 18 157 31 156 16 163 23 184 20
481 141 9 146 46 155 40 157 3 164 36
706 150 10 161 23 149 2 151 23 152 13 156 27
61 141 27 148 49 162 36 155 11
27 174 24 167 36 168 13 169 19 180 29
220 178 40 172 30 156 36 169 31 180 19 184 18
32 165 36 168 59
38 172 45 165 13 167 59 169 34
38 172 25 166 31 165 19 168 34 180 12
229 155 20 158 41 171 12 175 23 183 40
179 159 1 160 36 158 13 170 12 183 25 200 23
86 133 38 154 26 156 52 166 30 168 45 169 25
70 185 23 198 34 183 41 182 29
199 9 14 165 24 180 22 194 42 197 25
89 192 14 187 27 155 32 170 23 179 44 182 40 183 1
149 15 26 193 13 177 2 178 25 181 13
122 193 47 176 2 178 32 184 15 181 16
280 197 12 15 1 176 25 166 40 177 32 180 28 181 5 184 6
367 192 32 157 44 155 22 175 44 184 39
354 174 22 197 28 178 28 166 19 165 29 169 12
419 176 13 178 5 177 16
101 185 14 187 32 175 40 183 16 173 29
403 198 7 170 40 175 1 171 25 173 41 182 16 200 31
146 192 5 193 18 178 6 157 16 161 20 156 35 179 39 166 18 177 15
163 13 36 19 3 25 12 173 23 182 14 187 7 198 27
71 25 26 188 42 199 21
114 14 14 191 16 192 23 13 28 185 7 175 27 182 32
290 25 13 186 42 198 50 199 31 200 2
105 10 35 26 23 11 18 192 14 193 43
84 8 31 22 13 9 9 194 25 196 20
484 10 23 14 48 187 16 192 34
227 10 32 189 14 191 34 175 14 179 32 184 5 187 23 193 26
206 189 43 192 26 11 11 15 5 176 13 177 47 184 18
340 190 25 196 34 9 21 174 42
507 47 34 8 35 196 39
106 8 2 190 20 195 39 194 34
342 9 24 12 1 174 25 15 38 178 12 180 28
158 185 27 25 20 188 50 173 34 183 7 200 2
102 186 21 188 31 200 47
67 188 2 198 2 171 23 183 31 199 47
299 202 37 203 6 206 25 209 8 213 26 296 12
60 201 37 204 65 212 3 213 34 292 13 296 27
294 201 6 205 23 206 17 217 1 296 34 297 1
137 202 65 212 8 285 53 292 26
134 203 23 217 43
120 201 25 203 17 209 23 217 19
608 209 12 213 15 210 5 211 4 215 13
203 213 45 212 32 215 9 216 29 218 13
604 201 8 206 23 207 12 210 14 213 8 217 7 219 6
130 209 14 207 5 211 3 215 6 219 6
553 207 4 210 3 215 7
143 202 3 213 20 204 8 208 32 214 46 216 24
153 201 26 202 34 209 8 207 15 208 45 212 20 215 4
108 212 46 216 2
324 213 4 207 13 210 6 211 7 208 9 218 15 219 19
63 212 24 208 29 214 2 218 7 222 21
102 203 1 206 19 209 7 205 43 219 21 220 6
272 215 15 208 13 216 7 219 22 220 27 222 45
174 209 6 217 21 210 6 215 19 218 22 220 27
87 217 6 218 27 219 27 222 3
93 222 16 298 24 300 3
229 216 21 218 45 220 3 221 16 298 30 301 17
1170 99 6 107 14 119 1 227 24 237 22 241 7 257 6 261 15
155 234 11 226 26 249 25 269 18
102 81 11 92 18 93 16 242 19 246 1 247 19 248 20
185 235 17 234 8 244 15 224 26 269 11
864 117 18 119 2 229 3 223 24 241 20
227 79 36 233 43 231 32 239 9 262 10
753 113 17 96 4 117 13 227 3 241 19 244 18 251 8
53 112 2 237 10 240 21 261 21
324 79 3 80 12 118 22 228 32 258 1 259 23 262 30
65 118 17 91 17 236 20 255 16 259 48
145 79 1 70 19 105 1 228 43 234 31 239 13 249 14
102 105 22 233 31 109 22 235 6 224 11 226 8 249 16
148 100 13 113 14 109 9 226 17 234 6 244 21
79 245 4 91 36 232 20 243 36 255 12
133 99 13 112 20 223 22 230 10 261 10
30 245 25 260 5 255 13 243 31 271 45
538 233 13 228 9 249 22 252 20 256 15 262 21
155 115 12 248 12 112 2 230 21 253 4 254 16 261 1
515 229 19 223 7 227 20 251 19 257 26
21 225 19 247 15 246 28 250 32 268 5
112 245 24 236 36 255 14 238 31
380 113 4 229 18 235 21 226 15 251 24 269 16
20 60 1 78 45 114 44 91 6 102 1 236 4 238 25 243 24 260 12
19 225 1 248 23 242 28 253 27 268 1
106 92 23 225 19 242 15 250 8
80 93 8 225 20 115 16 240 12 246 23 253 4
131 233 14 234 16 224 25 239 22 256 19 269 3
88 247 8 242 32 268 19 273 12
732 229 8 244 24 241 19 257 14 269 22 263 12 278 33
118 239 20 262 13 256 14 264 30 265 23
38 248 4 240 4 246 27 254 23 268 13 270 5
325 240 16 261 9 253 23 267 10 270 22
23 232 16 236 12 259 2 238 13 243 14 271 57 286 79
26 249 19 269 8 239 15 252 14 264 7 266 28
649 223 6 241 26 251 14 261 7 263 25 267 34
111 231 1 259 39 262 27 265 40 286 12
34 118 5 231 23 232 48 255 2 258 39 286 2
48 114 17 245 12 238 5 271 40
95 223 15 237 10 230 21 240 1 257 7 254 9 267 19
102 228 10 231 30 239 21 252 13 258 27 265 4
70 257 25 251 12 267 6 277 25 278 37 283 12
24 252 30 256 7 265 1 266 11 279 33 280 11
80 262 4 258 40 252 23 264 1 272 15 279 17 286 32
49 269 24 256 28 264 11 276 11 280 28
975 257 34 261 19 254 10 263 6 270 9 277 8 281 23
176 242 5 246 1 253 13 250 19 270 25 273 30 275 23
302 244 16 224 18 226 11 249 3 251 22 256 8 266 24 276 26 278 2
46 253 5 254 22 268 25 267 9 275 6 281 28
27 260 40 255 57 238 45 286 4
52 292 32 285 26 265 15 286 19 279 38 287 19 295 5
404 250 12 268 30 275 6 284 3
902 277 25 283 15 281 14 275 23 284 6 294 19
314 268 23 273 6 270 6 281 18 274 23 284 41
71 269 26 278 14 266 11 280 22 288 8 290 30 293 24
328 263 25 267 8 274 25 281 15 283 25
481 269 2 251 33 263 37 276 14 282 14 283 3 290 36
94 264 33 265 17 272 38 280 12 287 20
223 264 11 266 28 279 12 276 22 287 20 288 10
65 270 28 267 23 277 15 274 14 275 18
162 278 14 283 30 290 27 289 25
289 263 12 278 3 277 25 274 15 282 30 289 12 291 10 294 5
122 273 3 275 41 274 6 294 10
30 204 53 292 21 272 26 286 62
104 259 2 285 62 258 12 255 79 271 4 265 32 272 19
52 279 20 280 20 272 19 288 22 295 31
209 280 10 276 8 287 22 295 16 293 26
76 283 12 282 25 291 20
91 278 36 276 30 282 27 293 26
192 283 10 294 28 289 20
85 202 13 296 6 204 26 272 32 285 21 295 1
138 297 28 276 24 295 4 288 26 290 26
101 283 5 284 10 274 19 291 28
77 296 38 292 1 297 22 272 5 287 31 288 16 293 4
292 201 12 202 27 203 34 292 6 295 38 297 19
67 203 1 296 19 293 28 295 22
146 222 30 221 24 299 28 300 5 301 6
71 298 28 300 27 301 22
383 221 3 298 5 299 27 301 15
81 222 17 298 6 300 15 299 22
