247 645 11
981 3 408
1061 4 109 6 197
928 1 408 4 83 6 380 9 537
673 6 246 3 83 9 153 5 122 7 282 10 103 2 109
699 8 111 4 122 7 254
954 4 246 2 197 3 380
788 8 379 11 70 4 282 5 254 10 477
510 5 111 7 379 13 543 11 107
770 16 15 15 271 4 153 3 537 10 468
756 16 610 11 116 4 103 9 468 7 477
349 8 107 13 158 36 136 16 401 7 70 10 116 34 484
701 32 243
1823 35 97 8 543 36 46 11 158 14 727
792 13 727
902 55 363 52 117 16 186 37 105 9 271
255 11 401 10 610 37 287 15 186 34 53 9 15
918 18 7 21 37
480 23 106 24 165 17 7 21 35
452 20 354 27 277 30 89
458 35 336 19 354 38 45 30 82
870 23 34 17 37 18 35
846 26 71 23 78 25 66
964 22 78 25 132 24 36 18 106 21 34
891 29 0 39 61 31 189 23 36 25 39 18 165
1095 27 63 31 239 26 160 23 132 22 66 24 39
1126 27 269 25 160 22 71
1382 19 277 26 269 25 63 30 287 31 0
704 41 53
806 32 209 24 0 39 379
1078 19 89 20 82 27 287 48 85 38 328 31 190
808 27 0 39 77 48 154 43 470 24 189 25 239 30 190
795 29 209 12 243 39 312
1051 42 27 45 418 41 22
694 36 502 16 53 11 484 37 167
1210 13 97 20 336 38 270 47 310 36 515
299 35 515 13 46 56 186 54 432 37 115 34 502 47 72 11 136
166 36 115 55 442 16 287 34 167 54 169 15 105
292 35 270 20 45 48 367 47 98 30 328
662 49 459 32 312 29 379 51 68 43 418 24 61 31 77
1208 42 54 45 92 41 22
1183 28 53 42 113 40 22 33 22
1634 40 54 45 165 41 113 33 27
538 39 418 48 86 51 455 31 470
930 85 46 50 854 90 548
864 79 324 60 533 42 165 40 92 33 418
518 93 0
327 35 310 36 72 48 374 38 98 56 522 57 56 59 183
1290 38 367 47 374 57 234 51 186 43 86 31 154 30 85
319 60 91 64 470 51 413 39 459
854 79 1026 44 854 90 27 69 191 91 437
1366 64 183 49 413 67 150 39 68 48 186 43 455 57 428
356 55 222 63 676 15 117 54 143
62 62 938 199 359 187 210 189 354
178 36 432 55 269 52 143 37 169 58 616 56 244 63 59
1156 54 269 52 222 37 442 15 363
974 36 186 47 522 59 511 58 149 54 244 61 50
185 67 152 48 234 51 428 47 56 65 502 59 446
329 56 149 54 616 61 375 63 530 72 265 66 192
203 47 183 57 446 65 51 56 511 68 171 61 401
478 79 743 78 542 45 533 71 219 49 91 69 19 64 156
806 59 401 68 293 58 375 56 50 72 516
35 216 411 53 938 199 235
119 52 676 58 530 54 59 66 740
691 60 156 71 517 49 470 67 515 51 183
204 67 451 57 502 70 501 68 129 59 51
246 58 192 63 740 72 156 84 904
564 71 234 73 64 64 515 70 49 76 301 65 451 87 24 51 150 57 152
232 65 129 70 508 59 171 74 435 75 18 61 293 72 140
71 79 411 78 344 60 19 50 191 95 197 91 240 110 483
164 67 49 76 513 65 501 89 25 68 508 74 12
169 78 340 77 315 60 219 73 138 67 234 64 517
171 68 140 58 265 61 516 75 515 84 5 66 156
417 77 568 71 138 106 449 67 64 87 525
170 70 12 89 459 75 363 68 435 83 22
110 74 363 68 18 72 515 83 244 84 120 81 265
228 67 301 70 513 87 642 89 95 104 339
109 78 295 95 474 106 47 71 315 73 568
74 77 295 95 175 60 542 71 340 69 344
102 45 324 60 743 50 1026 69 411
116 84 161 165 454 166 628 99 122
324 75 265 84 546 100 323 99 231 83 42
874 85 474
65 89 125 74 22 75 244 100 302 97 128 81 42
352 80 161 72 5 66 904 75 120 99 467 81 546
849 109 86 86 0 90 124 44 46 82 474
758 85 0 109 55 88 48 92 196 96 159
714 73 525 67 24 76 642 106 187 104 8 144 147 105 308
916 86 48 92 298 96 257
340 76 95 70 25 104 292 74 459 119 128 97 140 83 125
650 85 124 131 498 50 27 44 548 109 232 138 158 91 154
125 50 437 90 154 69 240 138 570 145 135 110 63 140 249
725 86 196 88 298
815 46 0 94 54 102 95
1057 93 54 107 53 102 51 108 58
478 78 175 77 474 69 197 106 137 110 93 103 491
935 86 159 88 257 109 398 130 222 123 124
187 89 140 139 329 119 307 100 167 83 128 99 55
649 107 65 124 0 117 35 112 28
95 80 122 166 100 139 465 142 502 84 467 100 91 97 55 81 231
339 97 167 99 91 83 302 81 323
538 133 152 115 68 113 34
1178 93 95 94 51 108 57
221 95 491 106 56 137 313 110 289 148 285
358 76 339 87 8 89 292 105 413 119 347
643 87 308 104 413 119 115 151 123 144 240 154 401
860 77 47 95 137 73 449 152 332 103 56 148 190 87 187 144 298
1100 94 53 108 24 111 68 98 65 112 13
953 94 58 102 57 114 43 107 24 115 136 111 7
1252 85 86 131 450 90 232 86 55 143 50 146 618 96 398 130 25
237 69 483 95 93 91 63 137 206 103 289 140 176
723 114 39 113 20 108 7 107 68 116 51 112 18
1299 111 18 98 28 107 13 116 17 117 33 120 33
1089 133 27 135 59 101 34 114 59 115 92 121 33 116 101 111 20
798 111 39 113 59 108 43 115 51
979 101 68 114 51 113 92 108 136
818 113 101 111 51 112 17 121 74 120 47
885 98 35 124 64 112 33 127 31 120 23
949 133 0 150 263
312 104 347 89 128 139 100 97 307 105 115 151 143
665 112 33 117 23 116 47 122 12 127 6 121 45
733 136 77 135 29 113 33 116 74 122 41 120 45 132 68
804 120 12 121 41 127 33 128 21 132 4
763 130 90 96 124 129 22 125 101 134 23
931 125 104 98 0 126 8 117 64 127 5
549 129 18 126 14 124 104 123 101
729 129 32 125 14 124 8 128 18 127 40
956 126 40 124 5 117 31 122 33 120 6 128 4
1481 129 10 126 18 122 21 127 4 132 40
792 125 18 123 22 126 32 134 43 128 10 132 4
754 146 103 109 25 147 126 136 180 96 222 123 90 134 87 132 24
662 143 228 109 450 90 498 138 400
1047 136 60 130 24 129 4 134 43 122 4 121 68 128 40
797 135 257 150 27 118 0 101 152 113 27
921 130 87 129 43 123 23 132 43
1583 149 80 147 236 136 95 133 257 150 201 121 29 113 59
1273 147 252 130 180 135 95 121 77 132 60
457 148 355 103 313 110 206 140 355 153 305 160 62
547 131 400 90 158 157 170 143 327 91 570 145 171
78 97 329 99 465 163 99 151 515 119 100 142 47
106 145 281 91 249 137 355 110 176 153 140
738 150 137
156 166 624 139 47 163 534 99 502
436 131 228 181 248 157 131 169 344 146 127 109 50 138 327 177 530
552 152 279 106 298 87 147 105 240 155 346 154 129
132 157 307 138 171 91 135 153 74 140 281
879 143 127 177 86 170 293 159 429 109 618 147 132 130 103
958 159 31 146 132 149 302 130 126 136 252 135 236
849 152 545 106 190 137 355 103 285 179 175 160 472 158 14
519 159 411 168 422 162 30 147 302 150 204 135 80
421 162 115 149 204 141 137 133 27 135 201 118 263
183 173 360 139 515 163 120 119 143 164 199 105 123 154 251
276 148 545 158 434 106 332 155 71 144 279
66 157 279 169 159 145 74 176 272 137 305 140 140 160 190
382 151 251 105 401 155 178 144 129 156 42 161 187 164 189
533 152 71 158 172 161 333 144 346 154 178
682 175 322 161 373 154 42 164 164 172 66
201 169 335 143 131 138 170 145 307 153 279
195 152 434 179 345 188 229 148 14 180 225 155 172 161 94 175 112
1016 174 264 170 191 168 59 146 429 147 31 149 411
552 176 586 137 62 153 190 179 374 191 271 148 472
801 158 94 155 333 156 373 175 52 154 187
1549 182 345 168 235 149 30 150 115
421 173 336 178 192 167 55 190 382 166 61 139 99 151 120 142 534
112 173 450 178 54 151 199 184 40 156 164 154 189 172 372
287 80 454 187 383 167 143 186 98 166 148
107 80 628 167 112 165 148 142 624 163 61 99 100
230 189 198 190 247 186 192 163 55 166 112 165 143
886 182 166 171 363 174 454 159 59 162 235 149 422
268 181 403 185 67 157 335 176 398 153 159 143 344
318 183 46 177 558 174 423 159 191 146 293
685 182 404 168 363 174 83
258 180 266 184 376 156 66 175 156 164 372
92 163 336 178 447 151 360 164 450
694 171 83 183 474 168 454 159 264 170 423
465 158 112 180 266 156 322 161 52 172 156
386 194 497 185 64 169 398 191 125 153 272 160 586
1000 181 265 143 530 183 396 192 43 146 86 170 558
158 193 501 198 208 173 447 184 182 163 192 190 79 164 54
173 188 434 191 391 160 374 158 345 148 175
396 195 266 188 144 158 225 184 113 175 266 172 266
164 169 403 143 248 185 612 177 265 192 76
606 168 166 171 404 162 345
478 192 304 196 582 177 396 174 474 170 46
209 195 244 202 106 198 431 178 182 180 113 164 40 172 376
199 194 108 206 484 181 612 176 64 169 67 192 305
960 187 136 167 192 189 12 165 98
418 53 210 165 383 186 136 189 247
340 204 197 195 393 200 71 179 434 180 144 158 229 191 135
293 197 27 199 304 187 247 53 354 167 198 190 329 186 12
292 193 1 197 547 178 79 167 247 189 329 163 382
268 194 145 176 125 204 274 207 152 211 395 179 391 188 135 160 271 214 8
310 205 429 206 98 181 76 185 305 183 304 196 262 177 43
142 190 1 178 501 197 481 198 173 201 206 203 196
512 206 498 210 41 185 108 176 497 191 145 207 595
429 180 266 184 244 188 393 200 433 202 264
200 205 199 183 582 192 262
213 193 481 203 263 190 547 199 258 189 27
247 202 369 193 173 178 208 184 431 201 272
376 216 324 62 235 203 254 197 258 213 412 53 359 189 304
260 204 179 195 433 209 277 212 249 202 50 188 71
151 202 289 193 206 198 272 221 532 203 476 220 64
254 195 264 200 50 198 369 184 106 221 271 217 7 201 289 209 428
119 193 196 201 476 197 263 199 254 213 405 220 85
451 212 323 200 179 188 197 191 274 211 211 215 313
390 210 53 196 199 206 139 192 429
250 194 498 205 139 210 416 185 484 192 98
62 194 595 210 180 191 152 219 283 214 464
321 229 0 228 485
139 200 277 202 428 223 64 212 258 217 527
283 194 41 228 385 205 53 206 416 207 180 218 39 219 377
461 204 211 225 14 215 372 222 64 191 395 214 578
361 204 323 200 249 223 90 215 87 209 258
145 216 200 203 405 199 412 230 253 231 226 220 87
391 207 464 211 578 191 8 224 270 219 136 222 4
335 204 313 211 372 225 323 223 157 227 223 212 87
171 62 411 237 118 231 669 213 200 199 324
224 202 7 221 251 232 252 223 345 226 272 209 527
807 228 87 210 39 229 95 224 127 219 454 240 456 233 23 222 78
444 210 377 207 283 224 222 214 136 218 454
307 221 142 237 110 201 64 203 85 234 228 235 174 230 359 213 87 231 197
86 202 271 232 228 217 251 201 532 234 574 220 142
174 211 64 225 217 224 333 214 4 218 78 236 43 233 123 239 182
353 227 322 215 157 212 90 226 162 217 345 209 64
424 214 270 222 333 219 222 218 127
533 211 14 215 323 222 217 236 406 241 210 227 257
376 241 349 246 236 232 507 223 162 227 99 217 272
312 225 257 241 230 223 322 215 223 226 99
98 208 485 229 475 210 385 218 87
219 208 0 228 475 218 95 245 135 240 202
59 213 253 231 234 220 359
57 216 669 237 391 230 234 213 226 220 197
238 221 228 246 310 242 738 234 57 217 252 235 3 226 507
490 218 23 222 123 238 117 239 131 240 81
51 221 574 242 429 232 57 220 228 235 196
79 237 881 242 719 234 196 232 3 220 174
330 244 187 247 36 225 406 241 16 222 43 243 290 239 292
37 216 118 231 391 235 881 220 110
423 239 116 243 199 233 117 240 237 245 47
652 236 292 222 182 238 116 233 131 243 6
181 229 202 218 456 238 237 233 81 245 324
472 244 372 225 210 246 182 236 16 227 230 226 349
118 234 429 232 738 235 719
219 247 455 236 290 238 199 239 6 245 509
233 246 316 247 413 241 372 236 187
479 229 135 247 34 238 47 243 509 240 324
142 244 316 247 228 241 182 232 310 226 236
338 244 413 246 228 245 34 243 455 236 36
