147 376 11
665 4 575 72 602
801 7 77 27 365 25 221 32 459
676 37 445 32 472
713 1 575 72 379 87 280 37 390 76 46
518 10 360 6 276
602 10 160 5 276 12 335
444 2 77 25 302 29 59
635 13 508 15 292 9 109 16 142
602 10 542 12 570 8 109 11 690 16 359 18 213
253 6 160 5 360 9 542 12 3
793 12 147 9 690 21 667 18 356
830 10 3 6 335 11 147 9 570
523 8 508 15 504
412 17 19 15 570 16 1073
596 13 504 14 570 8 292 16 250
832 14 1073 15 250 8 142 9 359 17 1091 18 530
1010 14 19 20 738 23 332 24 3 16 1091 19 54 18 465
944 24 714 9 213 16 530 17 465 21 36 11 356 26 492
101 22 208 20 8 28 83 17 54 34 512 33 260
376 22 598 17 738 23 196 19 8
493 11 667 29 344 26 679 18 36
1209 20 598 19 208 28 523 23 85
956 22 85 20 196 31 237 28 366 24 82 17 332
618 31 787 23 82 17 3 26 493 18 714
1014 7 302 29 36 27 6 2 221 30 87
524 31 345 24 493 41 212 21 679 29 443 32 398 42 125 18 492 30 19
713 25 6 2 365 30 571 32 285
1205 22 523 31 218 33 676 19 83 38 218 23 366
636 21 344 7 59 25 36 30 594 26 443
882 29 594 26 19 27 571 25 87 32 78
580 28 218 38 504 49 272 42 688 26 345 24 787 23 237
806 3 472 37 753 41 234 79 63 26 398 27 285 2 459 30 78
1027 28 676 34 260 19 260 38 14 40 417 35 249 47 232
246 33 260 19 512 35 329
549 34 329 36 356 33 249 39 496 47 28
258 39 62 35 356
633 3 445 4 390 87 573 32 753 79 771
612 31 504 28 218 33 14 40 450 49 358 44 64
36 36 62 35 496 48 473 47 199
754 33 417 38 450 47 175 44 292
735 83 129 85 89 42 1119 77 289 26 212 32 234 79 890
805 31 688 41 1119 26 125 53 365 77 332 49 180
567 72 319 80 463
696 38 64 40 292 47 46 55 15 49 84 46 280 45 15 52 13
923 55 83 58 13 46 47 51 10 50 42 44 15
974 45 47 44 280 50 124 52 132 51 2
360 33 232 39 199 35 28 40 175 48 420 44 46 52 296 68 184 54 84
600 39 473 82 230 78 405 47 420 68 130
1054 31 272 38 358 53 199 42 180 55 84 44 84 59 317
783 46 124 45 42 51 123
660 56 74 58 21 46 2 45 10 50 123 52 72
1177 47 296 56 51 65 46 54 226 57 25 46 132 44 13 51 72
987 60 26 59 255 64 78 49 199 42 365 77 298 74 16 73 208 71 249
760 47 84 68 237 71 156 65 60 52 226 70 74
875 45 83 58 25 62 43 44 15 49 84 59 28 61 12
527 57 43 58 50 52 51 51 74
773 67 31 56 43 65 59 69 28 58 18 60 12 52 25 62 39 63 8
843 56 50 55 25 45 13 51 21 57 18 62 45
938 53 255 55 28 49 317 61 84 60 40
758 53 26 64 56 67 50 59 40 57 12 66 31 61 21 63 40
974 55 12 59 84 62 37 66 45 60 21 63 3
942 55 43 58 45 57 39 61 37 63 41
755 57 8 62 41 66 25 61 3 60 40
987 53 78 60 56 67 43 74 64
782 57 59 52 46 69 66 54 60 70 5
479 61 45 60 31 63 25
690 64 43 74 25 70 26 60 50 57 31 69 17
1021 82 367 81 193 48 130 47 184 71 166 54 237
604 67 17 65 66 70 67 57 28
674 74 48 73 41 71 41 67 26 65 5 69 67 54 74
1237 88 199 81 329 68 166 53 249 77 94 73 260 70 41 54 156
676 1 602 43 319 80 406 4 379 76 356
908 53 208 74 74 71 260 70 41
1330 53 16 64 64 67 25 70 48 73 74
206 80 434 102 301 84 69 76 241 99 571
638 80 459 72 356 4 46 87 109 98 646 84 254 75 241 97 263
667 94 510 88 587 85 160 41 289 53 298 42 332 71 94
771 86 500 92 280 89 155 82 115 81 100 48 405
814 37 771 87 537 83 364 85 833 41 890 32 63
763 43 463 75 434 72 406 76 459
435 96 128 92 74 93 550 88 194 82 491 78 100 71 329 68 193
620 68 367 81 491 48 230 78 115
837 85 426 41 129 79 364
850 76 254 75 69 97 151 99 98
976 104 473 107 722 94 90 87 10 95 107 83 426 77 160 41 89 79 833
754 78 500 112 396 89 628
477 4 280 37 573 101 26 95 850 85 10 76 109 98 713 79 537
1090 96 557 103 359 94 288 81 194 77 587 71 199
95 86 628 112 45 92 556 91 102 78 155 90 77
525 96 118 92 347 89 77 93 186 105 440 91 13 110 166
277 112 256 115 197 89 102 105 273 90 13 116 167 119 69 113 13
241 90 347 89 556 93 558 78 280 81 74
738 96 568 92 558 90 186 81 550
313 103 196 104 92 88 288 77 510 85 90 106 599
696 107 624 101 18 87 850 108 283 102 922 98 250 85 107
522 122 215 103 100 88 557 114 300 110 144 90 118 93 568 117 77 81 128
517 98 20 84 151 76 263 99 405
658 101 36 87 713 95 250 99 182 102 265 76 646 97 20
924 98 182 102 632 84 98 75 571 97 405
350 131 85 129 67 130 252 102 1155
387 98 36 87 26 95 18
409 95 922 98 265 129 383 108 160 75 301 100 1155 99 632
252 96 100 122 573 88 359 111 333 94 196 106 308
636 85 473 107 816 94 92 106 650 111 116 126 81
657 90 440 91 273 113 183 110 78 109 17
701 103 308 104 650 94 599 111 411
555 104 816 108 634 126 455 95 624 85 722
1210 107 634 95 283 129 1018 126 499 102 160
569 105 17 113 152 110 138 114 98
586 96 144 105 78 90 166 114 250 109 138
266 132 266 122 356 103 333 104 116 106 411 127 510 126 265
237 86 396 116 614 91 256 89 45
910 115 139 105 183 91 13 109 152
502 96 300 110 250 109 98 118 54 120 81 117 372
386 119 53 91 197 113 139
583 112 614 91 167 119 504
627 96 77 122 193 125 343 118 159 123 52 114 372
785 123 47 120 174 117 159 114 54
699 115 53 91 69 116 504
555 118 174 123 39 114 81
674 124 185 125 93 123 127
455 96 215 103 573 111 356 127 387 117 193 128 58 124 556 125 112
548 125 71 121 127 118 47 117 52 120 39
812 122 556 128 565 125 285 121 185
474 122 112 124 285 117 343 121 93 123 71
260 132 205 104 81 107 455 111 265 131 294 129 12 108 499 130 21
212 132 377 122 387 111 510 136 168 128 579 141 89
233 122 58 127 579 124 565 140 455 133 316 141 109
575 108 1018 126 12 130 1168 102 383 100 67
199 131 1235 129 1168 126 21 100 252
385 132 497 137 139 126 294 100 85 130 1235
77 111 266 127 377 126 205 136 119 137 587 131 497
213 144 229 140 108 128 316 142 591
942 139 656 145 535 135 67
650 146 131 134 67 145 63
528 132 119 137 463 127 168 140 385 141 186 142 278
578 138 299 132 587 143 381 136 463 142 81 131 139
399 142 366 143 524 137 299
974 134 656 144 315
199 128 455 133 108 141 105 142 98 136 385
79 127 89 140 105 128 109 136 186
604 144 620 138 366 137 81 140 98 133 591 136 278
409 138 524 137 381
156 139 315 133 229 142 620
367 146 450 147 19 134 535 135 63
967 147 579 135 131 145 450
533 146 579 145 19
