331 924 11
123 89 28 126 223 111 570 133 303
385 163 470 187 132 201 196 11 264
563 32 303 7 719
28 9 485 10 279
589 38 155 66 21 15 158 52 40
391 297 147 290 431 242 389 186 465
244 3 719 12 402 32 131
641 13 130 10 412 19 356
20 4 485 14 150 13 83 18 385 10 299
126 4 279 13 179 9 299 8 412
298 2 264 201 534 220 295
267 33 777 7 402 32 490
508 34 64 26 100 19 371 18 424 28 92 9 83 10 179 8 130
104 9 150 18 460 31 504 28 194
488 70 348 66 44 5 158 58 10
307 25 49 21 37 27 161 30 26 29 206 17 76 24 5
260 33 13 42 515 47 76 54 482 20 807 16 76 27 30 29 368
317 14 460 13 424 9 385 28 240
195 13 371 8 356 22 513 26 160 24 68
300 22 141 23 180 17 807 27 59
545 22 56 23 25 16 37 25 147 27 112
307 19 513 20 141 23 360 24 13 21 56 25 20
288 22 360 20 180 21 25 27 265
345 19 68 26 48 22 13 16 5 25 154 30 192
128 22 20 16 49 24 154 21 147
287 13 100 19 160 34 244 36 216 37 102 29 81 24 48 30 193
604 23 265 20 59 16 161 21 112 17 30
525 14 194 31 291 13 92 18 240 34 317 40 40 35 340
176 42 154 26 81 37 172 16 206 30 197 17 368
559 26 193 16 26 29 197 24 192
136 44 277 14 504 40 120 28 291
902 38 311 3 303 12 490 7 131 52 49 33 422 47 135
222 12 777 32 422 17 13 47 939
843 13 64 26 244 36 134 28 317 35 123
1045 34 123 36 89 28 340 39 9 40 154 43 344
433 26 216 37 132 34 134 39 118 35 89
854 42 328 26 102 49 183 29 172 36 132 45 93 39 169
453 5 155 52 522 32 311
211 37 169 36 118 35 9 45 74 41 108 43 11
115 44 375 59 209 31 120 57 335 49 196 28 40 35 154 43 99 48 22 45 67 46 86
295 39 108 43 68 48 53 45 61 46 22
182 55 560 62 414 54 272 17 515 29 154 37 328 49 360
342 35 344 39 11 41 68 40 99 46 216
86 56 237 65 152 50 290 59 462 31 277 40 375
778 49 255 37 93 39 74 48 149 40 67 41 61
710 43 216 48 181 40 86 41 22
52 32 135 33 939 76 52 64 243 52 373 17 76 54 969 69 9
461 45 149 40 22 46 181 41 53
631 55 52 42 360 57 423 37 183 40 196 45 255
20 53 249 56 450 44 290
15 53 482 63 306
594 38 522 32 49 64 91 47 373 66 150 5 40 58 241
107 60 213 51 482 63 54 50 249 56 259
335 42 272 47 969 68 142 69 246 62 522 17 482
481 91 240 75 18 61 610 42 560 62 301 73 369 82 597 57 116 49 52
154 60 609 53 259 50 450 44 237 65 188 80 283 72 42
616 67 219 59 248 61 265 55 116 40 335 49 423
309 70 232 64 367 66 163 15 10 52 241
76 65 602 44 462 67 307 40 209 57 248
188 53 213 63 137 77 605 56 609 80 159
45 75 417 67 371 55 610 57 265
71 55 301 42 414 68 369 73 551 54 522
83 74 540 60 137 53 54 51 306 79 12 77 409
658 70 216 76 687 71 328 47 243 52 91 58 367
82 56 188 44 152 59 602 67 32 75 344 72 495 84 199
212 5 21 15 44 58 163 52 150
290 65 32 75 138 59 307 61 371 57 219
78 78 55 73 112 69 430 62 369 54 142
353 76 506 47 9 68 430 78 206 54 246
466 71 365 15 348 64 216 58 232
579 89 498 70 365 76 65 87 373 64 328
184 56 42 65 495 86 316 80 544 84 145
257 81 502 55 369 68 112 78 310 62 551 82 99 94 198
231 63 540 79 141 83 485
270 65 344 85 346 91 386 67 138 61 417 84 8 55 18
122 69 506 78 194 87 270 64 687 47 52 71 65
15 60 605 63 409 79 612 80 127
243 81 351 76 194 87 114 68 55 73 310 69 206
104 74 141 63 12 77 612 93 473 83 306 80 395
213 60 159 77 127 93 7 79 395 56 283 72 544 99 127 86 124 95 446
31 107 204 88 408 110 77 78 351 73 502 87 321 94 179
123 91 77 55 597 73 99 104 164 94 629 101 344
489 74 485 93 225 79 306 103 423
49 65 199 72 145 85 367 75 8 90 61 86 232 92 164
194 75 346 91 290 84 367 92 220
106 72 316 80 124 90 98 84 232 95 131 96 63
164 89 282 88 262 81 321 76 270 71 373 78 114
223 89 204 107 603 87 262 81 408
566 116 178 87 282 71 498 1 28 111 510 88 204 107 61
125 84 61 86 98 96 202 92 388 97 247
90 85 290 101 620 82 77 102 184 92 226 75 386 55 240
128 85 220 91 226 90 388 84 164 97 130 102 388
168 79 473 80 7 99 577 83 225 103 476 117 24
572 81 179 110 249 73 198 109 118 104 11 105 321 82 629
53 80 446 99 119 86 131 100 131 96 24 98 449
113 90 202 86 63 100 204 95 24 97 27
125 90 247 92 130 100 242 98 245 96 27 112 275 102 206
419 99 548 100 244 95 449 112 102 97 245 113 19
540 93 577 117 518 80 127 113 373 98 548 95 119
344 95 131 98 244 96 204 97 242
58 91 620 115 57 108 426 102 544 104 89 106 40 82 344
433 91 184 92 388 115 117 97 206 112 516 101 544 125 566 138 28
59 114 676 93 476 83 423 117 97
224 106 187 105 65 94 11 82 164 101 89
83 109 283 104 65 106 29 94 321
108 109 31 108 195 104 187 105 29 101 40
619 116 310 89 61 118 406 110 339 88 603 81 204
331 115 215 109 370 101 426 106 195
670 110 491 115 219 94 118 108 370 105 283 106 31
341 107 339 118 256 81 77 121 469 94 249 109 491 115 428
529 116 424 89 510 126 86 1 570 119 127 124 86
737 98 102 97 275 127 66 113 523 130 306 102 516 138 597
426 117 143 99 373 98 19 127 271 123 251 112 523
183 122 453 117 175 103 676
230 110 428 121 149 109 219 108 215 125 493 102 117 101 57 132 397 152 198
191 89 178 111 424 107 310 118 122 119 277
620 122 367 114 175 93 24 103 97 99 518 113 143 120 69 123 223 134 182 136 169
122 116 122 107 406 110 256 119 534 121 496
149 116 277 118 534 111 127 121 49 124 340 155 137 131 168 140 42
751 162 1 122 430 165 312 117 69 150 266 136 12 148 390
265 118 496 110 469 119 49 155 329 159 14 132 438 115 149
172 120 430 114 453 117 367
707 117 223 135 0 134 381 127 230 113 251 130 111
585 126 374 111 86 129 58 119 340 128 70 131 112 137 30
159 115 493 152 414 102 566 176 175 138 575 175 302
204 129 226 133 303 124 374 1 223 111 86
430 123 230 113 271 130 219 112 66
139 141 52 131 117 137 107 124 70
556 126 226 133 105 124 58 137 281
427 135 501 127 219 123 111 172 67 112 306 169 217 138 264
735 119 168 128 117 141 74 124 112 143 124 140 150
426 121 438 115 397 177 58 152 311 178 216 174 166 183 215 170 75 159 6
32 126 303 1 303 129 105 163 298 137 24 142 218
473 117 182 168 55 136 116 135 79 123 381 139 172 145 11 146 217
795 168 358 123 0 134 79 172 180 130 501
949 117 169 120 12 148 381 134 116 139 208 151 11 144 40
324 129 281 133 24 142 249 128 107 141 21 124 30
538 130 264 112 597 102 28 176 645 169 54 125 575
464 136 208 134 172 144 39 153 27 146 75 147 9
639 119 42 131 150 161 7 155 271 156 82 143 116 157 2
896 142 70 128 52 137 21 143 21 131 74
870 163 260 133 218 166 347 143 201 137 249 141 70
512 166 128 142 201 141 21 131 124 156 38 160 31 140 116
811 136 40 139 39 151 10 147 53
589 168 247 134 11 172 103 153 71 146 164 158 222
819 134 217 153 46 139 75 145 164
625 144 53 151 12 164 13 149 6 153 18 139 9 154 42
763 120 390 150 121 136 381 149 88 151 170
542 150 157 148 88 151 165 164 76 158 202 147 6
412 162 181 173 411 180 391 120 266 188 90 158 90 149 157 148 121
556 148 170 136 11 144 10 149 165 147 12
333 115 198 177 461 175 130 125 414 132 311
449 146 46 139 27 147 18 154 42 145 71 158 45
468 164 39 153 42 147 42 158 19
564 121 329 119 137 161 38 159 404 140 271
627 160 72 143 38 140 82 157 14
218 161 33 159 25 156 14 160 35 140 2
658 180 180 150 90 164 57 149 202 172 90 153 45 154 19 145 222
712 167 29 121 14 166 6 170 425 132 6 161 14 155 404 160 13 157 25
593 166 97 159 13 156 72 143 31 157 35
565 155 38 159 14 157 33 140 7
792 150 181 120 1 165 422 173 586
138 2 470 187 529 171 150 142 260 133 298 166 22
767 158 57 154 39 149 76 147 13
704 162 422 120 312
340 167 486 163 22 171 33 159 6 143 128 142 347 160 97
322 170 258 159 29 171 305 166 486
716 135 358 134 55 172 244 145 247
798 172 142 194 483 181 82 193 131 192 422 130 217 176 441 191 105 138 54
561 167 258 174 355 171 203 159 425 132 75
371 167 305 163 150 166 33 187 251 174 157 182 598 170 203
871 180 34 168 244 135 180 181 567 158 90 145 103 130 67 169 142
411 162 586 150 411 188 516
581 184 146 182 207 179 113 183 307 171 157 170 355 132 166
474 177 299 152 130 178 331 195 480 185 139 176 97 191 649 125 302
229 169 441 191 500 138 645 125 175 175 97
412 175 299 178 402 152 461 132 58
143 177 402 185 254 175 331 179 228 132 216 183 251
673 178 228 185 249 174 113 184 196 183 314
231 188 517 150 391 192 257 181 262 172 34 158 180
207 180 262 172 567 192 441 169 82
715 190 80 187 141 174 207 184 491 171 598
923 178 251 174 307 179 314 132 215
396 190 494 185 320 174 146 179 196 182 491
517 178 254 195 327 190 147 200 407 175 139 179 249 184 320 199 105
421 6 465 242 295 189 196 231 513 229 26
300 163 529 2 132 190 291 197 25 204 545 201 614 182 141 171 251
327 173 516 180 517 150 90 196 55 198 266 192 227
407 221 57 224 60 220 439 227 77 229 333 186 196
701 200 206 185 147 184 494 197 555 187 291 182 80
435 194 658 195 142 176 500 169 105 175 649
334 180 257 181 441 196 415 193 143 188 227 169 422
710 206 369 194 112 196 344 205 147 169 131 192 143
895 206 239 195 33 191 658 193 112 208 668 169 483
761 194 33 208 147 191 142 175 480 185 327 212 349 199 554
414 193 344 205 379 198 34 188 55 192 415
557 202 608 190 555 200 511 204 573 187 25 230 155
492 207 597 196 34 205 46 188 266
407 195 554 200 67 185 105 210 187 212 39 203 376
515 202 40 211 22 190 206 197 511 199 67 185 407 203 154
559 2 196 187 614 204 200 11 534 221 43 220 329
763 243 86 236 358 233 19 235 73 213 167 211 466 238 326 200 40 197 608 230 200
1069 211 153 200 154 210 133 199 376 209 369
333 197 573 187 545 201 200 221 196 230 945 226 440
982 207 484 206 106 196 379 193 147 198 46
484 214 437 207 399 219 249 205 106 193 369 194 239 208 271
612 214 268 198 597 205 484 206 399
362 206 271 194 668 216 225 195 147 219 163 212 65 215 357
640 211 294 210 33 203 369 217 147
855 199 187 212 37 203 133 217 34 209 33
804 213 87 202 466 218 248 200 22 203 153 209 294 217 68
709 216 7 208 65 215 629 213 98 195 349 218 262 210 37 199 39 217 171
479 216 127 233 636 232 106 211 87 202 167 218 418 212 98
293 234 687 207 268 219 158 206 437
441 216 501 208 357 212 629
401 208 225 219 632 215 501 232 6 213 127 212 7
617 218 138 211 68 210 34 212 171 209 147
109 213 418 211 248 212 262 217 138
175 234 349 214 158 206 249 216 632 208 163 232 483
372 201 329 189 439 11 295 221 350
541 201 43 189 57 220 350 204 196 224 115 226 336
497 225 37 229 42 228 76 223 39 227 57
650 239 199 258 163 231 358 225 25 229 289 228 50 226 426 222 39
560 189 60 221 115 227 116 226 2
676 222 37 229 41 223 25
656 221 336 224 2 204 440 230 58 239 33 228 119 223 426 227 21
516 189 77 224 116 229 66 228 30 226 21 222 57
723 223 50 226 119 222 76 227 30
656 189 333 186 26 231 320 225 41 227 66 222 42 223 289
239 243 643 202 200 197 155 204 945 239 549 226 58
626 242 428 186 513 258 452 229 320 223 358
923 234 461 284 499 264 707 216 6 219 483 233 6 248 90 213 106
668 235 520 248 207 232 6 213 636 202 19
106 214 687 232 461 219 349
758 236 200 233 520 237 312 248 205 202 73
1051 238 252 202 358 235 200 237 31 240 202
603 236 31 235 312 248 157 268 53 265 237 262 56 256 48 250 119 240 33 241 24
678 277 84 251 182 243 90 236 252 202 326 240 55 246 77 249 170 245 159
764 259 684 243 148 230 549 258 11 226 33 223 199
1074 236 202 237 33 238 55 241 144 246 9 244 16
653 237 24 240 144 244 49 247 36 250 108 245 3
218 297 571 6 389 258 236 186 295 231 428
291 252 188 251 619 259 299 238 90 202 86 230 643 239 148
634 240 16 246 48 241 49 245 7
650 246 71 238 159 249 82 244 7 247 82 241 3 254 114
1029 240 9 238 77 244 48 245 71
808 241 36 250 75 245 82 253 21 254 19
610 266 638 264 62 278 76 233 207 235 205 232 90 268 342 237 157
514 277 462 276 218 261 77 281 85 260 8 263 38 238 170 255 32 254 134 245 82
856 237 119 256 90 247 75 241 108 253 23
638 277 468 252 252 238 182 243 619
512 277 258 300 860 295 0 251 252 259 380 243 188
1071 255 29 256 49 247 21 250 23 254 62
925 249 134 255 65 247 19 245 114 253 62
700 257 87 263 3 249 32 256 17 254 65 253 29
804 237 48 262 71 257 24 255 17 250 90 253 49
779 262 20 267 28 256 24 263 65 255 87
113 297 231 312 325 295 396 242 236 259 402 239 11 231 452 223 163
538 295 538 252 380 258 402 243 299 239 684
490 261 84 262 23 271 29 267 41 249 8 263 57
385 276 50 249 77 260 84 271 29 274 39 273 42
931 237 56 265 63 260 23 271 44 256 71 269 23 257 20 267 22
988 267 28 260 57 257 65 249 38 255 3
800 284 223 311 199 266 649 232 707 248 62 278 105
502 237 237 262 63 268 208 270 21 269 107 272 13
1026 278 54 248 638 264 649
878 262 22 260 41 257 28 263 28
902 278 197 248 342 237 53 279 16 294 47 285 32 287 193 265 208 272 104
575 262 23 271 23 270 58 275 41 265 107
1044 275 62 269 58 272 116 265 21
855 261 29 262 44 260 29 269 23 273 36 275 32
573 280 28 279 89 274 7 268 104 270 116 275 4 265 13
733 261 42 271 36 274 65 275 25
658 276 67 261 39 280 50 273 65 272 7 275 31
636 271 32 273 25 274 31 270 62 269 41 272 4
277 283 15 288 157 282 25 249 218 281 110 261 50 280 37 274 67
529 252 258 251 468 300 98 281 0 249 462 238 84
764 310 257 311 371 266 54 264 105 308 220 248 76 268 197 287 6 296 29 298 121
553 283 31 286 51 282 0 280 35 285 54 268 16 272 89
644 283 42 276 37 279 35 274 50 272 28
491 277 0 300 133 307 164 306 7 309 59 302 215 276 110 301 33 249 85 288 149 292 62
819 283 49 276 25 286 21 288 35 279 0 291 26
710 276 15 282 49 280 42 279 31
172 311 174 318 184 232 499 264 223
1049 286 52 279 54 294 101 293 33 268 32
897 293 24 285 52 279 51 282 21 291 9
914 278 6 298 242 294 107 268 193 299 46
622 276 157 282 35 291 74 281 149 292 19
511 320 361 321 147 323 777 325 901
214 297 594 6 431 324 448 314 122 323 283
442 286 9 282 26 288 74 293 59 292 15
425 291 15 301 41 281 62 288 19 294 42 293 68 299 48
636 286 24 291 59 294 9 285 33 292 68
661 293 9 285 101 292 42 268 47 287 107 299 31
557 320 133 300 140 313 96 312 163 315 405 321 162 258 396 252 0 259 538
825 305 4 308 228 278 29 303 78 304 34 298 150
62 290 594 6 147 242 571 258 231 312 153 314 312
579 278 121 296 150 287 242 303 67 299 8
705 298 8 303 51 304 8 301 44 294 31 292 48 287 46
698 277 98 316 257 320 182 295 140 252 860 307 274 281 133 319 333
786 302 39 304 69 281 33 299 44 292 41
817 306 203 304 48 281 215 301 39
454 296 78 298 67 304 29 299 51
798 306 24 302 48 305 30 296 34 303 29 301 69 299 8
821 306 52 309 455 310 377 317 199 304 30 308 312 296 4
561 305 52 309 224 304 24 302 203 281 7
614 316 210 300 274 319 242 281 164 309 334 317 79
721 310 37 305 312 278 220 296 228
613 307 334 306 224 281 59 317 226 305 455
846 305 377 308 37 278 257 311 662 317 124 322 37
726 284 174 318 445 310 662 322 562 264 199 278 371
525 297 153 313 267 258 325 295 163 314 82 315 50
97 314 342 312 267 315 407 321 457 295 96
195 297 312 313 342 312 82 321 343 324 15 290 122 325 512
495 313 407 312 50 295 405
239 317 653 320 414 300 257 319 430 307 210
274 316 653 320 944 307 79 309 226 326 968 310 124 305 199 322 127
266 284 184 311 445 322 557
774 316 430 300 333 307 242
40 289 361 316 414 321 1875 295 133 300 182 317 944 326 240 328 836
62 289 147 320 1875 313 457 295 162 325 918 314 343
173 318 557 326 1007 310 37 311 562 317 127
264 289 777 324 406 290 283 325 286
320 314 15 290 448 325 194 323 406
393 289 901 321 918 324 194 314 512 323 286
689 320 240 328 1218 317 968 322 1007
375 331 53 329 613 330 414
534 320 836 329 735 326 1218
71 328 735 327 613
441 331 488 327 414
814 327 53 330 488
