264 749 11
439 2 39 8 106 10 15 11 5
154 1 39 11 87
154 8 14 4 4 6 30 7 31 9 54 17 91
534 3 4 6 72 16 3 17 53 73 76
107 10 121 11 18 6 69 73 391
224 10 3 3 30 4 72 5 69 9 38 73 7
439 8 97 10 8 3 31 9 70
668 1 106 3 14 7 97 10 39
350 10 23 3 54 6 38 7 70
225 1 15 8 39 5 121 6 3 7 8 9 23 11 139
368 1 5 2 87 10 139 5 18
627 13 111 15 46 27 121 46 87
114 12 111 27 1 31 26 36 51 49 50 50 52
193 15 28 46 65 42 29 45 16 47 12 48 55
649 16 131 12 46 14 28 46 66 48 16
643 4 3 17 126 15 131 48 22 73 9
186 3 91 4 53 16 126
199 235 129 236 78
229 20 156 23 153 190 39 221 109 224 44
80 19 156 184 24 189 108 190 59 239 23
693 234 39 242 32 245 7 247 57 252 8
675 235 631 102 350 131 237 172 20 223 30 263 213
95 19 153 24 424 186 16 224 117
231 23 424 116 64 145 125 186 105
763 31 36 30 69 33 22 35 2 40 2 61 28 74 28
1422 37 40 38 28 56 44 58 5
295 12 121 13 1 31 19 32 24 41 55 46 14 64 51 78 32
414 30 3 29 121 69 100 89 35
603 50 27 30 3 28 121 43 16 77 90 89 36
484 25 69 28 3 29 3 35 4 43 74 44 17 61 5 69 29
652 13 26 27 19 25 36 33 28 36 46 64 2 67 83 74 58
754 27 24 41 56 54 44 70 32 78 92
684 31 28 36 20 25 22 35 17 40 2
1085 37 41 38 50 39 79
690 36 5 25 2 30 4 33 17 40 4 44 16
107 13 51 31 46 33 20 35 5 43 20 44 13 49 30
369 26 40 34 41 38 6 56 19
437 26 28 37 6 34 50 39 66 58 21 77 91
1050 38 66 34 79
439 25 2 33 2 35 4
275 27 55 46 5 45 58 47 6 32 56 70 5 71 13
354 73 272 14 29 47 1 48 84 70 44 71 76 102 293
229 36 20 49 11 50 92 30 74 29 16 44 11
545 36 13 30 17 35 16 43 11
1144 46 18 14 16 41 58 47 61
143 12 87 15 66 27 14 14 65 41 5 45 18
1048 14 12 42 1 45 61 41 6 71 69
774 16 22 73 90 15 16 14 55 42 84
148 13 50 36 30 43 11 50 28
493 13 52 49 28 29 27 43 92
363 55 20 62 22 101 26 103 28 105 17
330 105 1 57 37 60 14 65 60 93 10 106 50
144 61 5 57 38 96 35 97 27 104 25
298 102 13 32 44 78 6 55 46 70 97 79 19 94 126 95 31 130 3 132 16
241 64 25 54 46 51 20 62 44 79 72 95 29 103 63
954 221 128 26 44 37 19 58 172
176 61 57 52 37 53 38 65 20 104 9 106 6
975 190 15 221 19 26 5 38 21 56 172 77 187
571 102 120 131 152 94 48
1666 62 15 105 37 52 14 63 45 65 15 66 34
786 25 28 30 5 53 5 57 57 65 15 69 80 74 43 96 17 99 38
304 64 4 51 22 55 44 60 15 66 51 105 35
719 67 4 60 45 65 20 66 10 72 43
442 27 51 31 2 55 25 62 4 66 33 67 83 78 43 79 48
454 61 15 74 25 52 60 57 20 60 15 63 20 68 15 72 9 76 10
578 64 33 67 40 62 51 60 34 63 10
791 31 83 74 19 64 83 63 4 66 40 72 3 75 11 76 14
739 65 15 72 21 75 5 76 24
297 30 29 61 80 28 100 89 51 99 25
121 42 44 102 66 32 32 41 5 54 97 71 79
1236 42 76 47 69 41 13 70 79
1046 67 3 65 9 63 43 68 21 75 21
590 4 76 6 7 16 9 5 391 42 272 48 90 102 96
1420 31 58 25 28 61 43 65 25 67 19 76 44
966 67 11 72 21 68 5 76 19
1616 74 44 67 14 65 10 68 24 75 19
1038 190 3 38 91 58 187 29 90 89 162
325 27 32 32 92 64 43 54 6 79 80
619 64 48 78 80 54 19 55 72
678 93 10 81 27 88 26 91 73 196 31
1574 80 27 87 24 88 18 196 30
1314 91 6 196 17 84 31 92 20 98 75 126 105 135 16 136 13
312 93 18 106 8 97 33 104 23 88 32 90 27 121 6
1145 95 23 132 4 82 31 85 31 92 29 136 2
1163 132 20 84 31 136 14
818 130 1 132 67 136 16 128 17 138 64
486 81 24 88 10 196 7 90 31
350 93 9 80 26 81 18 83 32 87 10 90 8
128 190 35 28 35 29 36 69 51 77 162 99 108 119 49
794 88 8 196 12 87 31 83 27 121 17 134 34
513 93 30 80 73 82 6 98 112 196 51
1113 101 23 95 19 82 20 84 29 98 43 100 27
362 105 31 52 10 80 10 83 18 88 9 91 30 98 25 106 54
847 102 77 131 90 172 22 54 126 59 48 114 22 130 69
461 54 31 55 29 103 60 84 23 92 19 100 18 132 96
565 61 17 53 35 97 25 99 56 119 35
754 53 27 96 25 83 33 104 18 119 21 121 17
530 101 17 105 38 93 25 91 112 82 75 92 43
1771 61 38 69 25 89 108 96 56 119 95
254 101 15 103 23 95 18 92 27
914 51 26 92 23 98 17 100 15 103 7 105 32
246 73 96 42 293 22 350 54 13 59 120 70 66 94 77 131 7
1233 51 28 55 63 101 7 95 60 100 23
294 57 9 106 38 53 25 97 18 83 23
1259 51 17 62 35 101 32 52 1 60 37 93 31 98 38
561 52 50 57 6 93 54 83 8 104 38
1041 109 1 110 6 118 3 161 6 162 3 164 8
813 172 3 114 4 117 17 160 4 167 14 169 9
702 107 1 140 27 159 44 162 8 164 1 170 23
437 107 6 111 13 112 11 118 10 164 12 168 2
719 110 13 167 8 112 9 129 11 168 16
797 128 4 138 3 110 11 118 4 111 9 123 5 124 1 127 1 129 2 133 8 137 10
963 161 6 162 2 159 7 115 3
700 172 106 94 22 130 116 108 4 117 18 129 5 167 1
1143 118 4 161 2 159 11 113 3 120 13
121 24 64 122 227 143 14 145 64
952 172 16 114 18 108 17
1066 107 3 110 10 112 4 115 4 120 1 123 13 161 1
717 190 71 184 20 89 49 96 35 97 21 99 95 121 102 155 17
1077 126 2 118 1 159 5 123 3 124 15 115 13
824 97 17 83 6 90 17 119 102 134 40 155 79
771 221 4 116 227 125 25 143 67 146 141 187 31
915 118 13 112 5 120 3 124 14
900 126 13 128 17 112 1 123 14 120 15
746 122 25 143 26 146 17
1398 196 1 82 105 120 2 124 13 128 4 135 17 159 100
540 130 11 112 1 129 4 133 15 137 24
1172 126 4 135 15 136 2 86 17 112 4 124 17 138 15
1111 130 16 114 5 167 11 111 11 112 2 127 4 133 15
509 54 3 94 69 86 1 114 116 127 11 129 16 132 51 137 1 138 48
729 22 237 102 7 59 152 94 90 172 31
1067 54 16 95 96 130 51 84 4 85 20 86 67 136 7
1227 112 8 129 15 127 15
415 196 30 90 34 121 40 155 39 197 18
1233 82 16 126 17 128 15 136 8
174 132 7 82 13 84 2 135 8 85 14 86 16 128 2
1157 130 1 138 32 112 10 127 24
879 130 48 86 64 128 15 112 3 137 32
1083 141 2 149 9 150 3 152 18 194 1 195 1 198 20
1013 239 32 196 8 109 27 142 59 144 5 147 1 154 8 156 4 159 67 163 8 170 11 185 44
943 139 2 149 9 191 1 195 9 199 1 200 2 201 1 202 4
1031 140 59 144 13 148 1 153 3 185 28 200 19 201 5 202 24
1309 116 14 145 102 122 67 125 26 146 1
749 140 5 142 13 147 11 153 3
943 24 125 186 88 116 64 143 102 146 42
1036 186 98 145 42 122 141 143 1 125 17 187 33
793 140 1 144 11 153 1 154 7 158 4
861 150 10 142 1 201 4 151 1 153 6 157 3
742 139 9 141 9 150 10 201 1
734 139 3 149 10 148 10 151 1 152 2 201 2
868 164 4 168 5 150 1 152 11 148 1 157 9 165 10
772 160 7 167 1 168 20 139 18 150 2 151 11 198 3
717 142 3 144 3 147 1 148 6 157 2 158 3
511 140 8 147 7 156 3 157 2 158 3
435 184 49 121 79 119 17 134 39 192 62 197 73
592 140 4 154 3 157 1 163 5 165 4
844 154 2 156 1 148 3 153 2 158 6 151 9 165 2
889 147 4 154 3 153 3 157 6
1124 196 9 126 100 109 44 162 1 140 67 113 7 115 11 120 5
162 108 4 152 7 167 16 169 9 177 14 198 7
1122 107 6 118 1 113 6 115 2 162 4
953 107 3 109 8 161 4 113 2 159 1
731 140 8 170 10 156 5 165 1 166 4
905 107 8 109 1 110 12 151 4 165 4 166 7 168 2 170 1
1023 164 4 156 4 163 1 151 10 157 2 166 5
804 164 7 170 5 163 4 165 5
372 114 1 108 14 160 16 111 8 129 11 152 1 168 14
315 110 2 164 2 167 14 111 16 151 5 152 20
338 172 8 108 9 160 9 177 16
1117 109 23 164 1 140 11 163 10 166 5
347 172 42 198 1 177 31 179 36 181 2 230 49
281 22 20 131 31 94 22 108 3 114 106 117 16 169 8 171 42 177 10 223 30 230 67
1340 175 3 178 6 228 7 229 2 231 11 243 2
1386 179 1 181 25 217 14 226 24
1264 173 3 176 7 178 6 228 5 232 8
1048 175 7 228 4 180 7 182 7 183 9 232 6
328 172 10 160 14 169 16 198 9 171 31
813 173 6 175 6 229 5 232 1
1446 194 8 198 10 171 36 174 1 181 26 225 9 226 7
1107 185 1 176 7 182 4 183 1 193 6
1131 171 2 179 26 174 25 217 10 230 29
956 185 14 176 7 232 6 180 4
1277 194 20 195 1 228 1 176 9 180 1 193 4 225 18
578 20 24 190 119 119 20 155 49 189 37 192 63
995 239 4 140 44 142 28 180 1 182 14 188 1 191 5 193 8 200 34 232 106
290 23 16 224 19 24 105 145 88 146 98 187 171
516 221 128 224 137 186 171 122 31 146 33
1005 195 4 185 1 191 6 199 5 193 12
472 20 108 184 37 192 77 197 8 239 82
103 19 39 20 59 58 15 77 3 89 35 119 71 184 119 221 166
876 141 1 185 5 188 6 199 6 200 16
433 184 63 189 77 155 62 197 35
861 195 3 185 8 180 6 183 4 188 12
1014 139 1 179 8 183 20 195 12 198 22 225 2
1105 139 1 141 9 194 12 183 1 188 4 193 3 199 4
498 239 49 80 31 81 30 91 51 82 17 87 7 90 12 126 1 134 30 140 8 159 9 197 86
424 189 8 239 132 196 86 134 18 155 73 192 35
774 160 7 139 20 152 3 194 22 171 1 177 9 179 10
1026 141 1 195 4 191 6 188 5
955 141 2 142 19 185 34 191 16 202 27
685 141 1 149 1 150 2 142 5 148 4 202 5
1099 141 4 142 24 200 27 201 5
561 206 25 212 34 214 2 215 15 257 20 260 15
529 209 1 210 15 244 27 246 5 258 41
626 209 1 244 28 211 11 255 23 262 6
519 203 25 215 19 251 6 257 32 261 17 264 12
1029 212 1 260 12 209 7 211 8 255 7 216 15
911 214 8 255 14 218 11 219 15 222 1 227 19 250 8
631 260 22 204 1 205 1 207 7 210 11 211 5 246 16 262 3
775 204 15 209 11 244 3 262 7
737 209 5 205 11 207 8 255 9
749 203 34 207 1 213 4 214 24 216 11 260 13
105 212 4 214 3 216 9 219 9
1658 217 9 203 2 212 24 208 8 213 3 215 5 218 19 219 8
47 230 2 217 35 203 15 206 19 214 5 220 20 264 35
923 212 11 255 5 207 15 213 9 219 8
1140 181 10 230 10 174 14 214 9 215 35 218 5 222 20 226 9
802 217 5 214 19 208 11 222 21
1069 214 8 255 10 216 8 208 15 213 9
505 223 32 263 4 230 20 215 20 264 21
79 19 109 190 166 56 128 58 19 122 4 187 128 224 96
810 217 20 226 3 208 1 218 21 227 21
447 22 30 172 30 220 32 230 112 263 139
483 19 44 23 117 221 96 186 19 187 137
1103 194 2 179 9 228 20 226 18 183 18
1332 179 7 228 4 231 7 174 24 217 9 222 3 225 18 227 3
2177 231 9 226 3 208 19 222 21 250 25
1110 173 7 175 5 176 4 183 1 225 20 226 4 231 11
1012 173 2 178 5 232 20 243 24
296 172 67 223 112 171 49 181 29 215 2 217 10 220 20
1230 173 11 228 11 226 7 227 9 243 1 250 15
950 239 8 242 24 185 106 175 8 178 1 229 20 243 76 176 6 182 6
280 239 30 234 147 240 113
568 239 11 21 39 233 147 242 120
52 18 129 22 631 236 1 237 29 238 51 241 160 263 69
103 18 78 235 1 237 4 238 48 248 45 251 29
159 235 29 236 4 251 31 238 47 241 59
109 235 51 236 48 237 47
166 20 23 189 82 140 32 185 4 196 49 197 132 232 8 233 30 234 11 240 110 242 31
350 239 110 233 113
271 235 160 263 148 251 16 261 74 237 59
117 239 31 21 32 234 120 232 24 243 7 252 16 259 77
1160 242 7 173 2 229 24 231 1 232 76 244 11 250 30 255 25 258 31 259 17
849 243 11 204 27 210 3 205 28 255 17 258 24 262 3
577 21 7 247 13 252 7 253 8 254 5
919 247 4 260 24 204 5 209 16 248 47 249 65 256 1 258 9
317 21 57 245 13 246 4 249 61 254 2
199 236 45 257 27 260 30 246 47 251 52
492 247 61 246 65 254 11 256 8
1480 231 15 243 30 255 3 208 8 227 25
449 236 29 206 6 257 22 237 31 241 16 248 52 261 18
768 21 8 242 16 245 7 253 1 259 19
745 245 8 252 1 259 18 254 16 256 2
982 245 5 247 2 253 16 249 11 256 22
574 243 25 244 17 205 23 211 9 207 7 208 14 216 5 219 10 250 3
771 246 1 258 80 259 56 253 2 254 22 249 8
342 203 20 206 32 248 27 251 22 260 2
366 243 31 204 41 244 24 246 9 256 80 259 7
266 242 77 252 19 243 17 258 7 253 18 256 56
1064 203 15 212 13 257 2 207 12 209 22 246 24 248 30
104 263 52 206 17 251 18 241 74 264 30
818 209 3 210 7 244 3 205 6
97 235 69 22 213 223 139 220 4 241 148 261 52 264 31
186 263 31 206 12 215 35 261 30 220 21
