429 1147 11
220 3 13 6 23 9 23
52 4 3 5 20 29 23
35 1 13 4 3 6 33 29 40
232 3 3 6 22 2 3 5 32 7 20 8 3 10 6 29 12
60 2 20 4 32 8 26
119 1 23 3 33 4 22 7 18 9 18
105 6 18 9 31 4 20 10 27
108 4 3 5 26 10 28 14 10
131 1 23 6 18 7 31 10 9 15 13 16 41 21 1
122 9 9 4 6 7 27 8 28 14 11 21 34
36 16 13 17 28 18 24 19 10 80 1
23 17 31 19 20 76 1
116 15 14 16 12 18 22 20 12 27 3
393 8 10 10 11 21 27 22 10 28 19
56 9 13 13 14 16 23 21 15 23 16 27 19
70 9 41 15 23 11 13 13 12 17 15 18 3
72 16 15 11 28 12 31 19 5
113 16 3 11 24 13 22 20 1 71 8 80 10
43 11 10 17 5 12 20 68 19 76 7 80 10
116 18 1 13 12 26 9 27 12 71 13
161 9 1 10 34 14 27 15 15 22 6 23 35
74 14 10 21 6 23 8 28 31 69 16 75 6 81 20 84 1
112 15 16 21 35 27 11 22 8 24 21 81 14
119 27 8 23 21 26 2 81 26 83 25 88 6
563 71 6 26 21 83 5 70 18
377 20 9 27 16 71 1 24 2 25 21 83 3
143 15 19 13 3 20 12 23 11 24 8 26 16
45 14 19 22 31 84 33
200 3 40 2 23 4 12
135 32 10 34 29 41 23 46 2 54 33 61 3 101 1
45 37 19 40 20 45 16 98 6
387 30 10 33 10 35 19 43 2 46 11 97 8 101 17
443 32 10 35 7 38 10 43 9
253 30 29 41 34 90 16 101 42
317 32 19 33 7 38 1 42 12 94 1 97 15 99 19 100 2
173 45 19 99 13 100 18 48 20
31 31 19 98 9
161 33 10 35 1 43 2 39 2 42 10 44 1 47 11 52 7
631 46 8 54 12 38 2 44 7 47 11 51 1
37 31 20 45 6 49 23 53 9
301 30 23 34 34 61 32 165 28
116 35 12 38 10 48 11 50 2 52 8 99 10
674 32 2 46 6 33 9 38 2 44 5
719 46 1 43 5 38 1 39 7
112 31 16 40 6 36 19 48 3 53 20 98 23 100 11
668 30 2 32 11 39 8 43 6 44 1 54 9
744 38 11 39 11 51 20 52 17 65 4
48 45 3 42 11 99 3 36 20 50 24 53 8
78 40 23 53 8 56 3 57 21 58 13
142 42 2 48 24 52 27 53 6 55 19 64 6 65 2
375 54 10 61 26 39 1 47 20 63 3 65 17
99 38 7 42 8 47 17 50 27 65 20
41 40 9 45 20 48 8 49 8 50 6 55 18 56 15
452 30 33 46 9 39 12 51 10 61 20
52 53 18 50 19 56 16 64 25 143 5
90 49 3 53 15 55 16 57 8 59 12 143 12
65 49 21 56 8 58 10 59 17 62 1
117 49 13 57 10 62 29 144 4
47 56 12 57 17 143 10 62 15 145 13
129 65 15 63 13 142 22 147 16
89 30 3 41 32 54 20 51 26 63 5 148 41 155 3 165 6
29 57 1 58 29 59 15 144 19 145 17
115 61 5 51 3 65 19 60 13 147 11 148 29
49 50 6 65 10 55 25 141 22 142 10 143 12
294 47 4 52 20 51 17 50 2 60 15 63 19 64 10 142 7
281 67 21
67 66 21 169 48
87 19 19 80 22 76 29 73 8 86 3
322 22 16 72 20 75 20 81 8
88 71 11 83 13 25 18 78 1 82 22
145 18 8 80 23 20 13 25 6 26 1 70 11 79 2 82 1
75 69 20 75 10 81 8 85 26 93 11
62 80 1 68 8 74 49 86 36 96 20
107 80 9 90 17 73 49 79 34 96 3
104 22 6 69 20 72 10 84 21 87 11 89 11 93 9
112 19 7 12 1 68 29 86 19
42 84 19 87 23
104 83 19 88 20 70 1 90 21 82 9
130 80 7 71 2 90 17 82 22 74 34
133 11 1 18 10 19 10 68 22 71 23 73 1 74 9 79 7
75 22 20 23 14 69 8 24 26 72 8 85 13 88 1
101 71 1 70 22 90 10 78 9 79 22
75 26 3 24 25 25 5 70 13 78 19 88 11
210 22 1 28 33 75 21 77 19 87 5
109 81 13 88 31 97 11 72 26 92 11 93 3
132 76 19 68 3 73 36 91 30 96 9
182 75 11 84 5 77 23 89 27
135 81 1 24 6 83 11 78 20 85 31 90 12 97 6 101 21
138 75 11 93 15 87 27 95 15
83 88 12 34 16 101 17 74 17 78 21 79 17 82 10 96 3
112 86 30 96 28
350 97 35 94 18 85 11 93 22
372 75 9 94 17 72 11 85 3 89 15 92 22 95 1
45 35 1 97 1 92 18 93 17 95 22 100 19
142 94 22 100 20 93 1 89 15
90 90 3 73 20 86 9 74 3 91 28
79 88 6 32 8 101 31 35 15 85 11 92 35 94 1
210 31 6 37 9 45 23 100 3
125 35 19 42 10 36 13 48 3 100 19
107 45 11 98 3 35 2 94 19 99 19 36 18 95 20
129 88 21 30 1 32 17 34 42 90 17 97 31
202 112 2 117 13 122 31 126 2 188 11 203 3 204 4 206 20
751 109 12 116 12 120 6 121 13 199 23 205 12
852 126 23 108 19 119 10 198 14 201 1
745 113 1 114 24 115 6 118 27
1439 118 10 110 13 123 27 124 7 134 22 197 1 214 47
191 110 3 133 61 212 31
211 109 2 205 1 104 19 119 14 125 17 198 8
327 103 12 108 2 120 11 125 18 205 23
117 106 13 107 3 124 29 133 24 182 9 212 34 214 14
136 121 17 113 9 208 20 213 17
74 102 2 117 32 204 17 207 25
427 105 1 111 9 114 31 192 8 200 13 213 13
526 105 24 113 31 115 3 200 1 202 12
763 105 6 114 3 118 17 197 10 202 14
331 103 12 120 15 121 9 127 5 131 13 135 9
198 102 13 112 32 122 10
1045 105 27 115 17 106 10 134 26 197 7
287 126 4 104 10 108 14 125 9 128 2 129 13 136 25
111 103 6 109 11 116 15 125 9 127 11 129 11
292 103 13 116 9 111 17 131 29 199 9 208 3 210 5
42 102 31 117 10 126 14 136 6
65 106 27 124 21 134 29
249 106 7 110 29 123 21 133 3
241 109 18 120 9 108 17 119 9 129 2
153 102 2 122 14 104 23 119 4 136 12 201 5 203 31 211 1
382 116 5 120 11 128 1 129 12 130 9 132 8 135 14
125 119 2 127 1 129 14 132 19 136 17
297 120 11 119 13 125 2 127 12 128 14
290 127 9 135 12 132 36
353 116 13 121 29 135 28
264 127 8 128 19 136 20 130 36
265 110 24 124 3 107 61
1912 118 26 106 22 123 29 137 22
476 116 9 127 14 131 28 130 12
174 122 6 126 12 119 25 128 17 132 20
1425 134 22 138 35
476 137 35
130 143 8 141 10 140 18 163 19 167 30
59 142 1 141 11 139 18 146 20 163 9
78 64 22 143 11 142 16 139 10 140 11
66 65 7 64 10 60 22 140 1 141 16 146 15 147 6
114 56 12 55 5 64 12 59 10 139 8 141 11 145 14 152 1 167 10
104 58 4 62 19 145 15
140 143 14 59 13 62 17 144 15 152 31
95 142 15 147 8 140 20 163 6 154 15
117 63 11 60 16 142 6 146 8 148 5 151 16 154 8 156 9
114 61 41 63 29 147 5 153 20 155 23 156 18
579 165 21 155 33 164 3 170 32 171 16
771 154 6 151 10 161 7 162 2 168 14
85 147 16 154 12 150 10 156 10 162 16
129 143 1 145 31 167 36 160 6 166 1
791 148 20 155 29 156 29 159 6 164 20
41 147 8 163 10 146 15 150 6 151 12 161 14
606 61 3 165 43 148 23 149 33 153 29 164 6
242 147 9 148 18 151 10 153 29 159 4 162 17
141 167 9 160 37 175 12 180 31
110 163 24 167 9 180 35 176 3 195 29
665 192 13 156 4 153 6 164 26 171 3 162 12 190 26
91 167 2 152 6 157 37 166 32 175 1 185 7
55 163 15 154 14 150 7 168 4 174 11 176 12
127 151 16 156 17 150 2 159 12 168 12 190 12
181 139 19 140 9 146 6 154 10 158 24 161 15 167 2 176 5
955 155 6 153 20 149 3 159 26 171 29
894 41 28 61 6 149 21 155 43 169 61 170 9 172 1 173 12
152 152 1 160 32 185 27
37 143 10 139 30 163 2 152 36 157 9 158 9 160 2 180 7
101 150 14 161 4 162 12 174 16 190 7
153 165 61 67 48 173 18 182 8
265 165 9 149 32 171 10 172 18 179 16 184 23 196 8
1607 192 9 149 16 164 29 170 10 159 3 179 23
277 165 1 170 18 173 23 183 18 184 22
96 165 12 169 18 182 39 172 23 183 6 193 22
77 161 11 168 16 176 22 190 13 186 13
280 206 7 160 1 157 12 180 10 185 10 191 11 215 27
134 163 5 161 12 158 3 174 22 177 8 186 15 195 26
106 205 20 176 8 195 23 186 2 209 23
159 197 1 214 47 183 24 193 30
159 192 19 170 16 171 23 194 17 196 9
179 167 7 157 31 175 10 158 35 189 6 195 1 215 3
70 212 42 182 5
374 169 8 110 9 214 1 212 13 173 39 181 5 193 26
207 197 3 172 18 173 6 184 18 178 24 193 13
569 197 1 170 23 172 22 183 18 196 21
264 188 2 160 7 166 27 175 10 191 21
446 199 18 205 15 210 16 176 15 190 16 174 13 177 2
284 188 20 204 15 207 18
130 102 11 185 2 187 20 191 28 204 11 206 6
51 201 5 211 12 180 6 195 3 215 13 209 20
176 208 13 192 9 210 6 162 12 168 7 159 26 174 13 186 16
248 188 28 206 22 175 11 185 21
264 113 8 208 3 213 30 159 13 171 9 179 19 190 9 194 8 200 1
107 214 10 182 26 173 22 183 13 178 30
582 192 8 200 19 179 17 196 12
179 180 1 158 29 176 26 177 23 189 3 209 3
937 197 13 200 11 170 8 179 9 184 21 194 12
612 115 10 118 7 106 1 178 1 183 3 184 1 196 13 200 19 202 22 214 21
988 205 3 104 14 108 8 201 18 209 6
146 103 23 121 9 186 18 205 2 210 23
583 113 13 114 1 197 19 192 1 194 19 196 11 202 1
755 126 5 104 1 198 18 189 5 209 5 211 11
734 114 12 115 14 197 22 200 1
207 102 3 126 31 206 29 211 8 215 8
120 102 4 112 17 188 11 187 15 207 3
63 103 12 109 23 199 2 108 1 177 20 186 15 198 3 209 9
384 102 20 188 6 203 29 175 7 191 22 215 1
252 112 25 204 3 187 18
80 121 3 111 20 190 13 192 3 210 32 213 22
197 205 9 198 6 201 5 195 3 177 23 189 20
72 121 5 199 23 208 32 186 16 190 6
588 126 1 203 8 201 11 189 12 215 13
203 110 34 107 31 181 42 182 13
117 113 13 111 17 208 22 192 30
63 106 47 110 14 197 21 178 47 182 1 193 10
414 203 8 206 1 211 13 175 27 180 3 189 13
1313 217 5 220 6 237 5 243 4 245 5
531 216 5 220 15 223 1 244 18 245 1 263 14 372 17
119 244 1 224 7 225 18 241 20 265 4 373 5
209 228 17 238 17
995 216 6 217 15 223 9 243 9
548 238 20 226 17 230 6 234 31 255 4
1240 230 14 234 18 231 12 247 21 254 5 360 1 377 13
763 217 1 220 9 243 13 240 8 370 11 372 1 376 13
219 218 7 241 5 242 21 373 20 374 15 375 10
279 244 20 218 18 227 6 373 21
175 228 25 238 9 221 17 230 22 362 6 381 7
592 244 6 372 26 225 6 373 24 363 17 364 14
313 219 17 226 25 238 4 362 30
255 231 7 240 19 370 12 232 11 379 25
268 221 6 226 22 222 14 234 4 360 23 381 17
1063 222 12 229 7 232 5 247 19 359 9 377 18 379 10
480 231 5 247 15 240 15 229 11 251 10 257 20 273 10
254 241 18 242 9 256 14 260 5 270 8
294 221 31 230 4 222 18 254 9 255 8 259 13
1007 237 5 245 2 263 3 261 1 264 6
74 239 24 274 62 283 29 298 44 371 10
1619 216 5 235 5 243 4 245 3 258 3 261 5
198 219 17 228 4 221 20 226 9 255 26
514 236 24 246 28 248 16 283 1 371 39 378 1
475 243 8 223 8 229 19 232 15 257 5 258 6 370 1
60 218 20 224 5 233 18 242 2 265 10 270 6
92 224 21 241 2 233 9 246 12 260 23 374 3
1013 216 4 220 9 237 4 223 13 240 8 258 7
255 217 18 218 1 225 20 227 6 263 10 265 25 266 3 372 5
769 216 5 217 1 237 3 235 2 263 7
1036 242 12 374 25 260 1 239 28 248 16 378 5
617 222 21 231 19 232 15 251 17 254 14
218 260 24 239 16 283 34 246 16 281 3
288 256 30 260 17 281 17 279 24
50 263 1 261 1 264 13 258 3 266 5 262 8 269 13 272 6
533 247 17 254 18 232 10 267 9 268 28 273 16
824 257 4 273 12 253 14 282 10
1729 257 3 258 13 272 16 252 14 282 5
1478 234 9 222 5 247 14 251 18 259 18 268 4 271 3
375 238 26 221 4 234 8 259 18 271 1 304 49
309 233 14 249 30 260 4 270 24 279 1
220 240 5 232 20 252 4 253 3 258 11 273 14
770 237 3 243 7 240 6 257 11 261 12 250 3 253 13 272 1
381 234 13 255 18 254 18 271 18
137 242 23 233 5 256 4 246 1 248 24 249 17 281 1
1564 237 5 235 1 250 1 258 12 262 7 264 4
1242 261 7 264 1 250 8
1000 217 14 245 7 244 10 235 3 250 1 264 11 266 9
1443 263 11 235 6 261 4 250 13 262 1
212 244 25 218 4 241 10 266 23 270 21
321 244 3 263 9 265 23 270 1 250 5 269 25 277 7 300 29
646 251 9 273 21 268 25 275 13 282 17 292 27
474 254 4 251 28 267 25 271 12 280 41 292 2
753 266 25 250 13 272 16 299 20 300 1
165 241 6 265 21 233 8 256 24 266 1 277 25 279 3
617 255 1 254 3 259 18 268 12 280 11 304 7
314 258 1 250 6 269 16 253 16 282 4 299 10
286 232 10 251 16 257 14 252 12 267 21 282 1
18 236 62 298 18 305 18 347 20 361 28 365 25 371 15
252 267 13 282 11 292 20 299 22 312 10
258 278 21 294 2 296 18 297 23
166 270 25 266 7 279 1 288 17 300 21 313 23
105 283 3 298 11 281 30 279 6 276 21 294 9 296 2
89 256 1 270 3 281 6 249 24 277 1 278 6 296 21 313 23
225 268 41 271 11 304 64 292 26 302 8
795 260 1 283 30 248 3 249 17 278 30 279 6
465 273 1 272 4 267 17 252 10 253 5 275 11 299 2
634 236 29 239 1 248 34 278 3 281 30 298 14
477 298 24 305 25 290 7 308 21 320 10
256 296 9 313 35 310 30 327 9
201 300 8 288 16 307 15 309 13 311 26
284 296 5 297 20 327 22 289 10 291 2 301 12 303 1
279 277 17 300 18 286 16 307 22 310 1 313 17 321 4
263 290 3 287 10 291 8 293 1 295 2 303 18
142 298 3 294 10 284 7 289 3 293 6 303 4 308 5
585 294 8 297 7 287 2 289 8 295 4
264 267 27 268 2 275 20 280 26 302 58 312 24
405 294 1 290 6 289 1 295 5
674 298 15 276 2 278 9 290 10 291 8 293 1 295 3 297 12
485 294 3 289 2 291 4 293 5
83 279 21 276 18 278 2 285 9 287 5 297 1 313 3 327 3
133 276 23 294 12 296 1 287 20 291 7
112 236 44 274 18 283 14 278 11 284 24 290 3 294 15 305 43
215 269 20 272 10 282 2 300 6 275 22 311 14 312 4
508 266 29 269 1 277 21 286 8 288 18 299 6 311 1
313 327 18 287 12 303 5 317 20 322 22 326 11
31 304 10 292 58 280 8 312 4 323 10 324 19 387 66
417 290 4 308 20 287 1 289 18 301 5 322 9
393 255 49 271 7 280 64 302 10 387 20 389 82
445 274 18 298 43 284 25 316 8 320 18
113 310 24 327 11 321 8 326 28
76 288 22 286 15 309 8 321 23 323 5 325 15
447 284 21 290 5 303 20 320 9 322 9
156 312 10 286 13 307 8 311 9 323 28
164 288 1 313 1 285 30 306 24 321 14 327 12
68 300 1 299 14 312 22 286 26 309 9
75 275 10 292 24 299 4 302 4 309 10 311 22 323 2
69 279 23 277 23 296 3 288 17 285 35 310 1
121 317 10 315 12 319 4 390 2 392 8 396 12
144 314 12 319 31 393 19 396 23
201 305 8 320 21 318 19 394 35 399 6
104 301 20 314 10 319 5 322 15 326 1 391 10 392 22
332 320 21 322 28 316 19 391 22 399 6
76 321 12 317 5 326 30 314 4 315 31 393 1
255 305 18 284 10 308 9 316 21 318 21 322 3
98 288 4 310 14 307 23 306 8 319 12 325 19 326 8 393 11
99 308 9 320 3 301 22 303 9 317 15 318 28 391 7
48 312 2 302 10 307 5 309 28 324 9 325 7 395 18
54 302 19 323 9 387 26 395 30
27 307 15 321 19 323 7 393 27 395 19
77 327 1 301 11 321 8 317 1 306 28 319 30
319 296 3 285 9 310 12 287 22 301 18 306 11 326 1
490 330 53
771 330 52 333 11
1330 328 53 329 52 333 18
225 332 5 335 44 339 28
90 331 5 334 9 335 38 336 26
325 330 18 329 11 337 16 340 20
95 365 10 332 9 335 25 336 20 338 30 343 37
137 331 44 332 38 334 25 338 27 339 3
190 332 26 334 20 343 29
514 333 16 340 27 352 14 357 26
176 347 49 365 28 335 27 339 38 334 30
272 347 24 331 28 335 3 338 38 355 7
811 333 20 337 27 352 34
891 342 25 349 8 354 24 366 1
987 341 25 348 30 349 22
192 365 52 334 37 336 29
432 362 39 352 44 357 11 369 13
890 360 8 350 12 351 17 367 20
67 375 8 378 36 361 23 355 21
618 274 20 338 49 339 24 355 39 361 39 365 33
1381 363 22 364 5 342 30 349 1
660 364 5 341 8 342 22 348 1 366 9 368 16
1002 345 12 351 1 356 7
1287 360 4 357 10 345 17 350 1 353 20 356 6
694 337 14 340 34 344 44 357 2
592 360 17 357 31 369 14 351 20
1025 341 24 366 27
103 347 39 361 24 339 7 346 21
1089 350 7 351 6 358 8
985 337 26 352 2 344 11 351 10 353 31 369 14
952 356 8
623 231 9 377 21 379 11 367 26
162 230 23 222 1 345 8 351 4 353 17 367 5 369 8 377 18 381 7
255 274 28 371 32 378 5 347 39 346 23 355 24
187 228 30 226 6 344 39 369 10 381 13
667 373 7 227 17 348 22 364 19
445 372 5 227 14 363 19 348 5 349 5 368 17 382 4
748 274 25 347 33 334 10 338 28 343 52
1357 341 1 349 9 354 27 368 7 380 1 382 12
688 360 5 377 7 359 26 345 20
1319 364 17 349 16 366 7 382 20
115 360 8 362 10 381 19 357 14 344 13 353 14
387 223 11 240 1 229 12 376 16 379 1 380 8
285 236 10 239 39 274 15 361 32 378 26
162 217 17 223 1 244 5 227 26 364 5 376 15 382 14
719 218 5 224 20 225 21 227 24 363 7 375 14
218 224 15 242 3 246 25 375 29 378 6
441 224 10 373 14 374 29 346 8 378 21
843 223 13 372 15 370 16 380 9 382 15
1260 222 13 231 18 360 18 359 21 367 7
115 374 6 375 21 239 1 371 26 246 5 346 36 361 5
171 231 10 370 1 229 25 359 11 380 16
227 370 8 376 9 379 16 366 1 382 7
825 226 7 230 17 360 7 362 13 369 19
1176 372 14 376 15 364 4 366 12 368 20 380 7
44 384 42 423 42 427 20
87 383 42 385 54 423 3 427 15 429 28
127 384 54 429 506
297 394 15 399 10 405 32
60 304 20 302 66 324 26 389 93 395 1 404 11
78 390 32 392 15 391 9 397 39 406 2
55 304 82 387 93 403 206 404 20
75 314 2 388 32 392 8 396 36 397 14 398 13
328 317 10 322 7 392 14 318 22 399 24 388 9 406 33
158 317 22 314 8 390 8 388 15 391 14
16 321 11 325 27 315 19 319 1 396 12 395 1 398 46
315 316 35 386 15 399 10
23 323 18 324 30 387 1 325 19 393 1 398 9 404 19
124 314 12 315 23 390 36 393 12 398 2
124 390 14 388 39 398 6 406 17 415 53
44 390 13 396 2 393 46 395 9 404 57 397 6 415 11 419 12
128 316 6 318 6 394 10 386 10 391 24 402 27 405 22 406 2
214 402 21 408 23 410 15 411 7 412 1
225 405 3 402 4 410 27
156 399 27 405 18 406 8 400 21 401 4 410 23 411 12
37 389 206 404 37 419 11 425 221
83 387 11 389 20 395 19 398 57 403 37 419 21
263 399 22 386 32 401 3 402 18
77 399 2 391 33 388 2 397 17 402 8 411 31 413 3 415 13
53 419 30 425 83 424 78
237 400 23 409 14 412 13 416 1
272 408 14 411 2 412 12 413 19 416 22
72 402 23 400 15 401 27
184 406 31 402 12 400 7 409 2 412 9 413 24
211 400 1 408 13 411 9 409 12
319 406 3 415 32 411 24 409 19 414 31 416 3 418 2
106 413 31 416 13 417 9 418 35 420 19
55 397 53 406 13 398 11 413 32 418 16 419 29 422 14
111 408 1 413 3 409 22 414 13 420 24
26 414 9 418 26 420 11 428 20
154 415 16 413 2 414 35 417 26 422 51 428 11
46 404 21 403 11 398 12 415 29 407 30 421 40 422 3 424 4 425 18
48 416 24 414 19 417 11
77 419 40 424 42 422 61 426 8
64 415 14 419 3 418 51 421 61 426 30 428 8
40 383 42 384 3 427 12 428 5
29 429 104 419 4 425 58 407 78 421 42 426 30
17 429 199 403 221 419 18 407 83 424 58
60 427 25 429 36 424 30 422 30 428 32 421 8
22 383 20 384 15 423 12 426 25 428 23 429 39
135 423 5 427 23 418 11 417 20 422 8 426 32
100 384 28 427 39 385 506 424 104 425 199 426 36
