248 715 11
174 7 33 8 21 16 12 19 4 22 18 49 6 55 1 56 7
353 5 16 6 32 50 9 51 6 53 15 59 34
307 4 14 9 35 10 19 13 22 14 17 17 11 37 8 43 6 54 8
86 59 25 3 14 13 57 15 22 43 53 44 27
376 2 16 6 9 15 50 20 34 27 23 59 27
312 8 25 2 32 5 9 20 23 53 22
424 1 33 55 27 56 12 57 22
533 1 21 6 25 19 40 20 21 49 1 53 32
59 3 35 10 23 54 25
57 3 19 9 23 17 39 54 22 58 66
98 56 8 12 47 46 69 47 45 52 48
219 56 9 11 47 23 20 25 130 46 125
51 3 22 4 57 14 19 15 5 21 42
79 3 17 13 19 15 1 17 88 21 71
238 5 50 59 25 4 22 13 5 14 1 21 73 27 31
490 1 12 18 11 22 13 23 8 56 2
37 3 11 10 39 14 88 58 11
1007 16 11 22 11 23 23 25 4 26 19
330 1 4 8 40 20 1 22 29 24 18 26 29 28 3
472 8 21 19 1 5 34 6 23 24 37 27 18
118 13 42 14 71 15 73
652 1 18 16 13 19 29 18 11 26 1
181 16 8 56 45 12 20 18 23 25 32
233 19 18 20 37 27 31 28 41
479 12 130 23 32 18 4 26 50 28 75
219 19 29 22 1 25 50 18 19 28 45
142 5 23 15 31 20 18 24 31 28 22
338 19 3 27 22 25 75 26 45 24 41
310 47 42 39 26 48 9 76 4 80 7 85 30 86 30
142 37 19 43 20 31 1 36 17 40 48 77 50
292 30 1 35 8 40 50 66 38 70 24 77 7 88 22
268 49 39 55 1 33 14 42 27 45 15 63 27 79 12 82 39 87 13
512 52 4 48 49 85 10 32 14 45 59 79 49
429 44 26 87 39 38 43 83 26 84 24
855 31 8 40 9 41 49 88 46 90 1 209 49
247 43 27 44 36 30 17 77 20 84 43
119 3 8 30 19 40 26 41 25 43 47 54 40
260 50 24 51 27 44 5 42 17 87 7 34 43
200 46 112 47 45 29 26 73 27 74 87 86 67
213 37 26 30 48 31 50 35 9 41 20
376 37 25 54 41 58 32 40 20 35 49 209 14 214 23
451 49 21 50 32 53 31 32 27 38 17 87 19
151 3 6 4 53 37 47 30 20 36 27 44 28
254 51 42 59 1 4 27 43 28 34 26 36 36 38 5 84 10
62 55 46 57 28 52 18 32 15 33 59
321 11 69 12 125 39 112 47 14 74 55
390 11 45 46 14 29 42 39 45 48 13 52 39
250 47 13 52 41 29 9 33 49 85 48
461 1 6 8 1 32 39 42 21 53 37 55 57
361 2 9 38 24 42 32 51 25 53 8
139 2 6 50 25 38 27 44 42 59 52
283 56 3 57 37 11 48 47 39 33 4 45 18 48 41
335 8 32 49 37 2 15 6 22 50 8 42 31
145 3 8 9 25 10 22 37 40 41 41 58 20
391 1 1 7 27 49 57 32 1 45 46 57 13
807 1 7 7 12 16 2 11 8 12 9 23 45 52 3 57 45
444 7 22 55 13 56 45 45 28 52 37
171 10 66 17 11 54 20 41 32 214 41
224 2 34 5 27 51 52 4 25 15 25 44 1
801 78 5 115 18 116 33 119 9 120 37
1289 74 23 71 23 81 56 106 77 111 19 114 3
602 73 26 71 5 114 41 69 19 107 42 108 3
552 32 27 79 58 82 37 102 6 113 47 118 19
287 70 14 90 49 209 25 65 14 89 9 172 75
107 66 6 70 11 64 14 103 62 123 10 172 62
421 31 38 77 19 65 6 70 5 72 33 100 9 103 53 112 12
112 77 5 84 4 115 18 120 16 72 45 112 19 75 37
268 80 40 85 6 79 39 118 15 104 34 121 33
318 76 55 86 4 73 42 62 19 107 29
230 31 24 66 5 64 14 65 11 88 19 89 19
886 73 45 74 36 61 23 62 5 81 16 114 42
92 77 44 66 33 67 45 112 36
694 39 27 86 51 62 26 69 42 71 45 74 37
685 46 55 39 87 73 37 61 23 71 36 81 63 106 148
258 83 26 84 37 78 15 120 6 67 37
1000 29 4 69 55 80 26 86 39 104 53 107 8
158 30 50 31 7 36 20 66 19 67 5 72 44 84 18
465 83 26 60 5 75 15 119 11 120 32
386 85 6 32 12 33 49 63 58 68 39 118 27
164 29 7 76 26 68 40 85 61 104 24
606 74 63 61 56 71 16
173 32 39 63 37 87 43 113 17 119 34
396 87 14 34 26 75 26 78 26 84 11 119 22
209 44 10 36 43 77 18 34 24 83 11 67 4 75 37
199 29 30 48 48 80 61 33 10 68 6 79 6
478 29 30 39 67 76 39 69 4 73 51
340 32 13 42 19 82 43 34 39 38 7 83 14 119 22
293 31 22 35 46 70 19 89 1 90 24
960 70 19 88 1 90 13 64 9
418 35 1 88 24 64 49 89 13 209 39
754 107 10 108 12 95 8 97 2 101 18 124 22 137 2 147 9
706 104 22 137 45 99 40 178 49
1481 97 4 94 1 146 2 150 1 151 1
792 95 4 97 1 147 2 93 1 150 3 153 1
921 91 8 94 4 97 4 147 2
1583 111 20 114 8 108 23 101 9 98 25 141 5 149 2
1047 91 2 95 4 93 4 94 1 101 6 146 1 149 6
797 111 2 96 25 129 19 141 2 142 26
547 104 32 121 17 92 40 110 17 178 15 179 57
78 66 9 103 4 123 46 112 51 125 32 143 10
1273 108 25 91 18 97 6 96 9 149 7
457 63 6 105 35 113 35 118 30 127 31 134 20
156 66 53 65 62 100 4 123 50
436 76 53 80 24 107 12 68 34 92 22 99 32 121 13 137 5
106 102 35 118 14 110 28 179 24 134 17
738 74 148 61 77 111 40 142 785
879 76 8 62 42 69 29 91 10 104 12 108 13 137 61
958 114 30 62 3 107 13 91 12 96 23 101 25
552 115 12 116 34 117 27 130 29 133 24 175 14
132 118 7 121 30 99 17 105 28 179 13
421 61 19 106 40 96 20 98 2 114 20 142 33
183 66 12 115 25 72 36 100 51 67 19 133 12 143 14
849 63 47 82 17 119 1 102 35 117 54 127 28 130 19
519 61 3 71 42 111 20 62 41 96 8 108 30
382 60 18 67 18 109 12 112 25 116 17 120 4 133 40
533 60 33 115 17 109 34 117 7 119 17
276 116 7 119 43 113 54 109 27 130 33
66 63 19 79 27 102 30 68 15 105 14 110 7 121 27
195 82 34 87 22 83 22 60 9 78 11 116 17 113 1 117 43
686 60 37 78 32 115 4 67 16 75 6
201 118 27 68 33 104 13 99 17 110 30
617 124 6 131 11 140 2 145 3 152 10 180 3 185 2 198 11
95 65 10 172 12 103 50 100 46 125 5 128 9 173 23 176 46
935 91 22 122 6 137 39 147 12 152 8 153 1 174 15 180 25
187 123 5 100 32 128 16 143 30 171 12 181 14
1178 129 4 185 24 136 18 182 5
221 102 31 113 28 130 5 134 28 183 49
339 123 9 125 16 171 30 173 32
538 98 19 141 3 126 4 136 8 139 18 142 576 185 36 198 427
860 113 19 127 5 109 29 117 33 165 44 169 4 175 18 183 13
1100 122 11 135 6 136 2 140 1 182 6 185 1
358 143 34 133 41 175 1 181 29 168 33
643 115 40 112 12 143 11 109 24 132 41 175 30
237 102 20 179 6 105 17 127 28 161 48 183 9
723 141 2 131 6 140 1 136 1 138 3 144 5
953 129 8 131 2 126 18 135 1 138 4 139 13 182 5
1252 107 61 104 5 91 2 124 39 92 45 174 5 177 8 178 23
711 141 5 136 4 139 5 135 3
979 141 9 129 18 136 13 138 5
1098 122 2 131 1 135 1 144 1 145 3 148 3
1089 96 5 98 2 129 3 135 2 138 5 139 9 144 10 149 3
949 106 785 111 33 98 26 129 576
312 100 10 112 14 125 30 132 34 133 11 181 12
818 141 10 149 7 140 1 135 5 148 4
885 151 3 122 3 140 3 148 2 152 6
804 97 1 93 2 148 1 149 4 151 3
1006 91 9 95 2 124 12 94 2 153 10
665 146 1 151 1 149 4 140 3 145 2 144 4
733 97 6 101 7 146 4 96 2 141 3 144 7 148 4
729 93 1 94 3 151 4 152 1 153 1
956 93 1 146 3 150 4 145 3 148 1 152 1
931 124 8 150 1 151 1 153 10 122 10 145 6
549 124 1 147 10 94 1 150 1 152 10
246 172 259 176 106 164 15 208 222 210 19 215 100
564 175 2 165 6 168 30 156 51 157 45 158 4 159 23 203 15 213 15
691 155 51 159 51 203 18 205 47 216 15
204 155 45 158 50 160 12 211 5 213 50
164 181 2 168 51 155 4 157 50 160 50 162 1
169 165 13 169 31 155 23 156 51 166 34 216 21
232 164 14 157 12 158 50 162 43 163 1 211 17 217 29
71 179 24 134 48 183 19 166 34 167 41 202 19 216 1
170 171 2 181 45 158 1 160 43 163 36
110 173 26 176 12 171 24 164 51 160 1 162 36
171 176 1 154 15 160 14 163 51 210 26 217 51
417 130 44 175 52 155 6 159 13 169 56
74 183 17 169 29 161 34 159 34 216 54
102 161 41 216 74 201 71 202 136
228 175 64 181 9 132 33 155 30 158 51
109 130 4 183 47 165 56 159 31 166 29
874 174 251 177 47 196 114 200 196
65 125 12 128 30 173 4 162 2 163 24 181 12
116 209 262 64 75 65 62 123 12 154 259 176 35 208 23
324 123 23 128 32 163 26 171 4 176 54
837 124 15 137 5 180 4 170 251 177 50 184 293 196 8
714 109 14 130 18 133 30 132 1 155 2 165 52 168 64
352 172 35 123 46 173 54 154 106 163 12 164 1
849 137 8 178 12 174 50 170 47 200 4
650 137 23 92 49 99 15 177 12 179 15 200 54 202 2
125 99 57 178 15 110 13 105 24 134 6 161 24 202 43
916 124 25 122 3 174 4 184 48 198 34
340 125 14 143 12 171 12 132 29 158 2 162 45 168 9
1057 131 6 185 6 126 5 136 5
478 127 49 134 9 130 13 161 19 166 17 169 47
725 180 48 198 319 174 293 196 71
1061 129 36 122 2 131 1 126 24 182 6 198 66
694 192 50 193 16 226 48 235 5
1210 192 51 190 27 199 31 232 9 239 52
795 189 52 191 31 231 44 248 20
1051 205 44 201 41 188 52 191 1 194 2 197 2 231 34 247 66
292 187 27 199 9 204 36 239 4 245 32
662 203 6 205 45 188 31 189 1 195 41 243 6 246 7 248 37
299 186 50 187 51 193 11 199 7 206 43 212 18 226 13 232 4
166 186 16 192 11 206 16 207 44 230 10 235 28
1634 201 16 196 5 189 2 197 11
538 203 45 191 41 204 8 246 47
1208 174 8 201 136 170 114 184 71 194 5 197 10 200 44 247 186
1183 196 10 189 2 194 11 247 19
718 129 427 122 11 180 34 185 66 184 319
327 213 5 211 18 192 7 187 31 190 9 204 37 212 52
930 178 54 177 4 202 124 201 56 170 196 196 44
1286 205 13 216 53 167 71 202 1 189 41 194 16 196 136 200 56
854 178 2 179 43 161 19 167 136 200 124 201 1
1366 155 15 156 18 191 6 195 45 204 18 205 41 213 42
1290 203 18 213 23 190 36 199 37 195 8 245 8 246 15
319 156 47 203 41 189 44 191 45 201 13 216 48
178 208 14 210 61 215 5 192 43 193 16 207 26 212 24
1156 208 22 193 44 206 26 230 36
356 209 29 214 280 172 23 154 222 206 14 207 22 215 108 230 614
62 35 49 41 14 90 39 64 25 172 262 208 29 214 379
329 154 19 164 26 206 61 212 14 215 53 217 37
203 157 5 213 44 160 17 199 18 212 51 217 40
974 210 14 211 51 217 5 192 18 199 52 206 24
185 155 15 157 50 203 42 199 5 204 23 211 44
35 58 41 41 23 209 379 208 280 220 158 230 333
119 154 100 208 108 210 53 206 5
478 161 1 156 15 159 21 205 48 166 54 167 74 201 53
806 164 51 210 37 160 29 211 40 212 5
1061 220 14 219 11 221 35 223 20 224 21
928 220 86 218 11 221 38 223 8 228 92
981 214 158 230 716 218 14 219 86 228 152
954 218 35 219 38 223 24
788 226 7 223 28 224 25 225 47 227 37
673 218 20 219 8 221 24 222 28 224 30 225 10 228 15
699 218 21 223 30 222 25 227 58
756 226 11 235 61 223 10 228 46 222 47
349 186 48 192 13 222 7 225 11 227 10 232 15 235 40
510 226 10 232 107 224 58 222 37
770 235 1 230 230 220 152 219 92 223 15 225 46
792 232 37 248 1 243 104 233 6 234 43 236 4 237 19 240 10 241 2
902 214 333 208 614 193 10 235 18 207 36 220 716 228 230
701 188 44 189 34 247 86 248 112
1823 192 4 226 15 187 9 227 107 229 37 234 69 239 32
480 243 19 229 6 236 2 238 10 240 3
452 232 69 239 37 245 8 229 43 241 14 242 27
255 186 5 193 28 226 40 225 61 228 1 230 18
918 229 4 233 2 240 3
846 229 19 238 9 240 6 241 30 244 6
964 243 3 233 10 237 9 240 8 244 13
458 187 52 190 4 232 32 234 37 245 8
870 229 10 233 3 236 3 237 6 238 8
1126 229 2 234 14 237 30 242 33 244 16
1382 245 28 246 1 234 27 241 33 244 6
891 191 6 248 120 229 104 233 19 238 3 244 3 246 18
1095 243 3 246 23 237 6 241 16 238 13 242 6
1078 190 32 239 8 204 8 234 8 242 28 246 19
808 191 7 204 15 245 19 195 47 243 18 242 1 244 23
704 196 186 189 66 231 86 197 19
806 188 20 191 37 231 112 229 1 243 120
