149 343 11
564 4 28
253 
671 10 22 9 68
734 1 28
811 7 188
136 12 707 11 247 9 350 22 36 18 671 21 45
367 5 188 8 248
558 11 254 7 248
445 10 566 12 47 11 144 3 68 6 350
97 17 253 12 3 9 566 3 22
550 8 254 6 247 9 144
48 10 3 19 473 17 481 9 47 6 707 22 29
355 16 320 72 41 71 301
606 
237 85 218 79 100
554 13 320 72 330
82 10 253 19 182 12 481
214 23 473 6 671 21 17
72 17 182 25 120 26 242 12 473 22 557
659 23 165 21 34 27 96
1244 22 458 23 337 6 45 18 17 20 34 28 448 31 43 27 160
203 33 182 19 557 26 466 12 29 31 658 6 36 21 458
599 20 165 18 473 21 337
286 
389 29 228 19 120 26 490
136 29 364 33 189 19 242 25 490 22 466
1067 20 96 21 160
951 32 378 31 399 21 448
233 34 423 33 397 25 228 26 364
183 
531 33 471 22 658 28 399 32 29 36 735 40 222 21 43
227 28 378 31 29 36 113 41 246
164 34 224 38 386 29 397 68 405 22 182 31 471 64 285 26 189 40 80
153 38 597 33 224 35 145 29 423
42 34 145 38 497 37 649 65 42
1251 31 735 40 512 32 113 43 598
163 65 427 35 649 74 516 60 895
140 34 597 33 386 35 497 65 583 68 350
235 
218 33 80 31 222 64 817 36 512 70 547 46 89 43 66
901 32 246
484 43 98 48 38 47 98
963 40 66 36 598 46 275 53 21 51 89 42 98 48 37
594 45 89
430 44 89 54 54
304 40 89 70 412 59 27 58 143 66 404 43 275 53 156
844 42 98 49 15 48 56 50 25
1073 51 162 43 37 42 38 52 15 49 60 47 56
708 47 15 48 60 50 35
662 49 35 47 25
453 55 22 53 190 56 23 43 89 52 28 48 162
663 56 0 51 28 48 15
672 58 206 46 156 55 95 43 21 54 28 51 190
473 57 0 59 169 62 31 58 119 55 10 53 28 45 54
908 54 10 56 0 53 95 51 22
217 55 0 51 23 52 0
847 67 121 62 365 61 158 54 0
459 59 244 53 206 46 143 54 119
1302 54 169 62 415 58 244 66 128 46 27
122 37 895 74 239 82 513
706 57 158
732 67 213 57 365 59 415 66 144 54 31
584 71 0 67 0 73 45
571 68 832 33 285 76 39 40 817 84 194 75 257 70 87
1148 38 583 68 678 87 442 37 427 35 42 74 750 76 184
685 73 234 67 43 78 375 70 214 59 128 62 144 46 404
157 63 0 73 442 57 121 62 213 66 43
461 38 350 33 405 64 832 65 678 76 599
275 77 376 72 47
328 64 87 40 547 78 150 83 275 75 408 46 412 66 214
826 72 479 13 301 80 35 63 0 86 50 81 432 73 407
666 79 230 77 357 69 47 16 330 80 322 13 41 71 479
227 63 45 86 294 71 407 67 442 78 555 66 234
157 92 224 87 350 37 516 65 750 82 688 60 239
125 64 257 70 408 88 339 83 448 84 359
227 68 599 87 417 65 184 95 325 98 62 64 39 91 523 84 614
1082 79 174 69 376 72 357
367 86 323 90 470 73 555 83 579 70 150 66 375
359 85 213 15 100 89 93 80 326 77 174 72 230
79 79 326 89 361 72 322 71 35 81 83
67 80 83 86 588 93 218 71 432
55 92 560 74 688 60 513 94 477
269 90 96 78 579 70 275 88 321 96 319 75 448
118 76 614 64 194 88 394 75 359 91 266
238 89 228 15 218 79 213
27 90 207 78 323 73 294 99 325 81 588 71 50 93 312
225 92 406 74 350 65 442 95 624 97 250 76 417
61 83 321 75 339 84 394 91 427 96 362
105 85 228 79 93 80 361
104 104 97 86 207 105 292 106 90 99 423 96 710 78 470 83 96
192 98 466 107 404 108 161 104 58 76 523 88 427 84 266 96 110
54 97 225 103 415 94 440 82 560 87 406 74 224
209 86 312 81 218 99 369
32 92 440 100 836 82 477 103 275
402 87 624 101 90 97 439 76 325 98 295
354 104 783 90 710 88 362 83 319 91 110
134 92 225 87 250 101 596 95 439 103 237
73 101 564 95 295 121 25 112 358 108 599 91 466 76 62 111 201
48 86 325 105 580 90 423 93 369
39 116 95 120 92 102 710 110 191 94 836 103 119
48 103 367 109 1 112 458 97 596 98 564 95 90
122 100 710 120 771 117 677
32 92 415 101 367 97 237 100 119 110 643 94 275 109 219
67 115 257 107 394 114 433 106 209 90 97 91 58 96 783
483 90 292 106 403 99 580
103 126 34 115 511 104 209 105 403 119 202 90 90
115 114 474 104 394 91 404 113 376 111 189 108 203 118 56
768 98 599 107 203 113 371 111 323 91 161
156 101 1 112 498 110 207 103 219 129 319 124 286 128 61
41 100 191 116 536 124 154 103 643 109 207
212 121 160 98 201 131 206 135 376 107 189 113 209 108 323 118 284
49 101 458 121 687 129 35 109 498 132 67 98 358
176 107 376 111 209 108 371
147 122 552 115 8 107 474 104 433 118 368
43 122 482 126 379 106 511 104 257 114 8
356 100 95 110 536 120 319 124 90 127 259 123 86 125 78
106 102 677 120 673 137 459 134 407
165 131 471 141 456 122 371 133 22 107 56 114 368 111 284
32 136 87 126 460 106 202
578 100 92 102 771 117 673 116 319 123 36 134 870
142 112 687 132 303 138 387 135 314 111 160 98 25
101 126 356 115 482 114 552 118 371 133 192
673 120 36 130 230 134 114 128 133 127 315 116 86 125 6
114 110 154 109 286 116 90 128 135 125 106
44 124 106 128 77 127 89 123 6 116 78
100 136 332 122 356 133 321 119 460 106 34 115 379
595 123 315 116 259 125 89
1227 109 61 124 135 130 270 129 182 125 77 123 133
174 112 35 132 671 109 319 130 423 128 182 137 342
797 134 747 123 230 128 270 129 423 137 79
144 111 206 118 471 139 415 141 230 135 172
84 121 303 112 67 138 550 137 179 129 671
47 143 361 144 396 142 71 136 318 141 364 122 192 126 321 118 22
556 120 870 117 407 130 747 123 114 137 757
58 140 100 121 314 138 441 131 172 139 544 111 376
40 143 304 133 318 119 87 126 332
86 146 1527 140 101 132 179 138 316 117 459 130 79 134 757 129 342
26 140 609 121 387 132 550 137 316 135 441
124 140 295 142 108 131 415 135 544 141 184
42 148 197 146 449 145 568 139 295 135 100 142 85 137 101 138 609
377 142 737 131 230 139 184 133 364 118 456
234 145 699 140 85 144 105 139 108 141 737 133 71
18 136 304 144 271 133 361
261 145 778 143 271 142 105 133 396
240 142 699 140 568 144 778
289 148 612 147 1091 137 1527 140 449
74 148 272 146 1091 149 1004
50 146 612 147 272 140 197
39 147 1004
