175 479 11
33 2 29 3 32 4 19 104 23
89 1 29 4 8 8 37 96 36 104 32
109 1 32 4 15 5 8 7 27 97 16 104 17
129 1 19 2 8 3 15 5 12 6 10 8 30
330 3 8 4 12 6 35 7 24 97 7
99 4 10 5 35 97 4 98 22
341 3 27 5 24 97 21
437 2 37 4 30 96 11 99 34
209 10 148 12 36 15 17 17 169 19 24 146 18
255 9 148 15 19 143 4 144 110 146 65
192 13 49 148 34 150 38
137 9 36 17 31 19 47 29 11 30 27 42 17
110 19 16 11 49 14 40 16 41 18 9 31 2 39 14 148 20 149 19 150 9
63 13 40 16 32 31 53 32 22
120 9 17 10 19 17 332 119 403 130 22 144 119
228 19 37 13 41 30 27 14 32 32 13
193 9 169 12 31 15 332 21 713 29 27
68 13 9 148 66 24 1 39 34 140 14 147 67
274 9 24 12 47 13 16 16 37 30 19 146 14 149 11
201 42 12 28 29 35 38 40 27 44 4
107 17 713 29 34 22 29 50 513
205 29 21 21 29 25 24 34 13 50 40
859 40 16 26 12 27 16 33 19
907 18 1 39 103 147 82 151 7
54 29 23 42 31 35 8 22 24 34 18
296 30 3 31 13 32 30 23 12 27 17 33 19 41 29
139 30 49 42 14 28 29 40 10 23 16 26 17
394 42 28 20 29 27 29 40 8
340 12 11 17 27 21 34 22 21 25 23 42 31
95 12 27 19 19 16 27 26 3 27 49 32 16 42 5
37 13 2 14 53 26 13 32 13 36 36 39 24 41 25
69 30 16 14 22 16 13 31 13 26 30
683 40 30 44 8 23 19 26 19 41 2 46 45 49 3
147 35 19 22 13 50 22 25 18 47 23 71 19 72 8
289 42 14 20 38 25 8 34 19 44 26 47 39
138 31 36 39 80 41 10 37 30 38 32
1240 36 30 49 20 38 38 48 45
68 41 24 36 32 49 6 37 38
142 13 14 18 34 31 24 24 103 36 80
66 20 27 28 8 23 16 27 10 33 30 44 2
115 31 25 26 29 33 2 36 10 38 24 49 38
444 12 17 29 31 30 5 20 12 25 31 27 14 28 28 35 14
611 44 26 46 31 54 42 59 19
563 20 4 35 26 40 2 33 8 43 26 45 7 46 30 47 12 59 29 63 2
350 44 7 47 32 63 37 66 13 75 17
387 44 30 33 45 43 31 49 49 54 1 60 10
405 35 39 44 12 34 23 45 32 71 18 75 6
58 49 14 37 45 60 68
70 33 3 41 38 46 49 37 20 38 6 48 14 60 23
242 21 513 22 40 34 22 72 462 158 46
610 73 9 76 3 78 1 80 6
413 76 1 78 6 80 6 57 2 61 2 64 1
621 76 2 57 3 56 2 77 5 79 3
261 46 1 43 42 59 7 60 68 67 67
660 59 3 79 9 67 25 58 13 69 9
440 59 2 57 2 53 2 58 13 65 14 79 1
630 76 1 52 2 53 3 56 2 64 4 65 1
579 59 10 56 13 79 10 55 13
640 44 29 43 19 54 7 55 3 56 2 58 10 63 12 65 21 67 1
59 46 10 49 23 48 68 54 68
595 78 1 52 2 62 6 64 5 65 1
843 63 16 78 16 61 6 65 22
162 44 2 59 12 45 37 62 16 65 1 66 9 70 23 78 29
715 52 1 57 4 61 5 65 1
491 59 21 63 1 57 1 61 1 64 1 56 14 62 22
640 45 13 63 9 70 25 75 21
722 54 67 59 1 55 25 69 52
290 69 47 74 7 84 22 86 55
479 73 1 77 5 79 5 67 52 55 9 68 47 74 20
548 71 5 63 23 66 25 75 24 78 7 74 5 84 22 88 69
363 34 19 47 18 70 5 72 59 75 48 88 15
312 50 462 34 8 71 59 88 20 158 429
773 51 9 69 1 74 21 76 1 77 9 78 4
605 73 21 78 27 69 20 70 5 68 7 84 41
183 47 6 71 48 45 17 66 21 70 24
591 51 3 73 1 52 1 53 2 57 1 77 4 80 2
806 73 9 76 4 53 5 69 5 79 10
535 63 29 51 1 73 4 52 6 61 1 62 16 70 7 74 27 80 1
847 53 3 56 1 77 10 55 9 58 10 69 5
389 51 6 76 2 78 1 52 6
430 84 9 86 64 82 45 83 16 157 5 161 51
471 81 45 83 4 87 19 157 28
576 84 5 81 16 82 4 87 17
645 70 22 68 22 74 41 81 9 83 5 85 17 86 10 87 27 88 10
161 84 17 88 15 157 47 87 13 159 23 160 46
479 68 55 84 10 81 64
460 84 27 82 19 83 17 157 38 85 13
193 71 15 72 20 158 73 70 69 84 10 85 15 159 36
456 97 29 98 14 90 12 93 29 95 21 105 20 106 16
428 97 8 89 12 91 34 105 30
120 104 29 97 3 90 34 105 5 103 20 114 14
367 93 31 95 3 106 1 94 12 113 28
500 89 29 92 31 95 26 106 19
727 106 13 92 12 113 9
130 98 10 89 21 93 26 92 3 113 20
474 2 36 104 7 8 11 99 65 101 19 102 32
133 3 16 104 7 5 7 7 21 6 4 89 29 90 8 91 3 98 30
221 97 30 6 22 89 14 95 10
88 8 34 96 65
78 109 22 110 43 117 45 127 20
182 96 19 102 39 109 40 117 40
34 104 12 96 32 103 39 101 39 109 1 116 40
46 104 42 91 20 102 39 111 1 114 22 116 22
116 1 23 2 32 3 17 91 29 96 7 97 7 102 12 103 42
456 89 20 90 30 91 5 106 7 114 39
192 89 16 93 19 105 7 92 1 94 13 113 37 114 17 123 19
110 111 1 112 21 115 22 121 15 124 19 125 17
83 119 17 110 44 127 12 121 17 118 44
90 101 40 102 1 100 22 110 8 112 32 115 1 116 19 117 6 121 10
59 100 43 109 8 108 44 121 9 127 20
274 103 1 114 28 116 19 107 1 115 24 124 21 126 39
42 109 32 107 21 115 26 121 26
135 95 20 106 37 92 28 94 9 123 55
684 105 39 106 17 91 14 103 22 111 28 123 44 126 1
206 109 1 116 39 111 24 107 22 112 26
82 103 22 102 40 109 19 111 19 115 39
516 101 40 100 45 109 6 127 40
202 119 8 121 24 108 44 120 16 132 20 133 22
57 15 403 108 17 118 8 127 379 130 25 132 17
105 118 16 132 22 133 24 134 7
19 109 10 110 9 107 15 112 26 108 17 118 24 122 19 125 6 128 19 133 8
309 121 19 125 48 128 52 131 18
111 106 19 114 44 113 55 126 54 131 37 145 44
126 111 21 107 19 125 35 126 26 131 26
294 107 17 121 6 124 35 122 48 131 10
676 114 1 111 39 123 54 124 26 131 22
166 119 379 100 20 110 20 117 40 108 12
371 151 25 121 19 133 27 122 52 131 11 136 57 137 1
778 136 3 137 6 138 2 139 2
407 15 22 143 9 144 30 119 25 132 37
221 151 52 123 37 124 26 125 10 126 22 122 18 128 11 145 57
188 143 2 119 17 130 37 118 20 120 22 134 31
153 121 8 118 22 120 24 128 27 134 26 136 10
96 143 24 120 7 132 31 133 26 136 5 139 11 141 11 142 19
798 140 21 137 25 138 19 142 8 152 23
648 133 10 134 5 128 57 129 3 137 37 139 26
613 140 28 151 2 128 1 136 37 129 6 135 25 138 1
560 137 1 129 2 135 19 139 18 142 11
607 134 11 136 26 129 2 138 18 142 12
30 148 7 18 14 135 21 137 28 147 43 151 54 152 11
416 143 27 149 20 134 11 142 36 152 1 153 6
614 134 19 138 11 139 12 141 36 135 8 152 20
206 10 4 146 40 130 9 132 2 134 24 141 27 144 26 149 29
111 10 110 15 119 143 26 130 30
82 151 84 123 44 131 57
211 9 18 10 65 19 14 143 40 149 40
16 18 67 24 82 140 43 151 60
77 11 34 13 20 18 66 140 7 150 4 152 21 153 6
173 19 11 146 40 143 29 13 19 150 35 141 20 153 12
66 11 38 13 9 148 4 149 35 153 29
642 24 7 140 54 147 60 128 25 131 52 137 2 145 84
615 148 21 140 11 141 1 142 20 135 23 153 35
547 148 6 150 29 149 12 141 6 152 35
350 161 9 160 9 156 50 162 14 163 6 166 10 168 31
425 166 12 168 6 167 7
348 159 50 160 42 154 50 162 13
307 81 5 82 28 85 47 87 38 160 16 161 56
93 50 46 72 429 88 73 159 65
179 158 65 88 36 85 23 156 50 160 34
481 157 16 161 1 85 46 159 34 154 9 156 42
244 81 51 157 56 154 9 160 1 163 7 170 26 172 75
517 154 14 156 13 165 23 166 14
437 161 7 154 6 164 22 167 5 168 30 169 1 170 51
422 163 22 167 8 165 16 169 10 171 21
505 162 23 166 6 167 5 164 16 171 18
451 154 10 162 14 155 12 165 6 167 1 168 1
372 163 5 166 1 168 11 155 7 164 8 165 5
481 154 31 163 30 166 1 155 6 167 11
315 163 1 170 3 164 10 171 18 173 43
455 161 26 163 51 169 3 172 17 173 14 175 11
350 165 18 164 21 169 18
251 161 75 170 17 175 67
298 170 14 169 43 174 33 175 25
141 173 33 175 51
368 170 11 172 67 173 25 174 51
