102 279 11
146 2 1705 8 185 6 1191 4 1234
115 1 1705 6 570 5 1714 7 1083
714 12 543 8 1854 4 2263 14 76
741 3 2263 6 1320 14 914 15 997 8 316 1 1234
1350 7 1246 10 2911 2 1714
206 13 869 15 1494 4 1320 7 1138 2 570 1 1191
263 5 1246 10 168 11 268 6 1138 2 1083 13 276
1017 12 353 9 1479 3 1854 4 316 1 185
151 12 524 8 1479 18 628 14 809
1068 11 3658 5 2911 7 168
145 17 3455 10 3658 13 581 7 268
1290 14 164 9 524 3 543 8 353
149 6 869 21 936 15 149 23 990 11 581 17 296 7 276 16 315
257 12 164 9 809 3 76 18 306 4 914 15 370 20 1125 19 170
365 6 1494 4 997 14 370 13 149 23 702 19 739 24 1259
189 17 3276 21 255 22 1096 13 315 27 1731
153 11 3455 16 3276 13 296
39 9 628 14 306 25 908 26 198 20 653
130 14 170 20 727 26 32 15 739 32 253 28 745 24 385
98 18 653 14 1125 26 562 19 727
459 22 1110 31 152 23 433 13 936 16 255
65 21 1110 27 1544 36 82 31 435 16 1096
62 21 433 31 1198 13 990 15 702 35 930 24 332 39 199
377 15 1259 32 359 19 385 35 585 23 332 34 689
155 18 908 29 527 30 488 26 298
742 18 198 29 529 25 298 20 562 28 611 33 131 19 32
187 38 2374 22 1544 36 229 16 1731 66 6 56 352 83 655
449 26 611 33 527 32 643 19 745 37 71
365 25 527 30 590 26 529 33 455
240 29 590 25 488 43 992 33 235
97 21 152 22 435 36 1034 39 552 23 1198
350 19 253 28 643 24 359 34 427 37 594
84 29 455 26 131 43 152 45 545 30 235 28 527 41 337 37 425
172 32 427 35 580 24 689 42 89 40 167 37 313 44 176
71 24 585 34 580 42 750 23 930 46 447 39 101
75 47 691 38 286 22 82 31 1034 49 206 27 229 39 441 52 126 54 155
1260 33 425 32 594 28 71 40 928 41 68 34 313
129 47 896 27 2374 56 1730 52 0 36 286
107 31 552 49 488 50 202 36 441 35 101 23 199 46 513
1023 37 928 41 385 44 937 34 167
76 45 2133 33 337 55 1000 40 385 37 68 44 255 43 564 91 372 73 367 82 1245
84 48 164 53 379 35 750 46 513 51 244 34 89 44 284
150 45 2107 30 992 33 152 41 564
325 55 185 51 874 42 284 40 937 41 255 34 176
94 43 2107 41 2133 33 545
78 50 64 48 727 35 447 39 513 42 513
148 52 650 38 896 36 691
55 57 707 50 446 53 137 46 727 42 164
187 58 435 54 179 50 600 39 488 61 22 36 206
11 57 59 49 600 48 446 46 64 39 202 61 526
445 59 426 53 456 55 130 42 244 44 874
62 47 650 38 0 36 126 56 251 54 530 60 168
327 57 392 62 361 48 137 59 605 42 379 51 456
473 49 179 36 155 52 530 58 544 63 263 60 98
76 73 1259 62 62 59 846 41 1000 51 130 44 185
221 38 1730 66 1407 52 251 64 91 60 343 65 727 27 352
31 62 575 69 525 53 392 48 707 50 59 61 290
41 49 435 54 544 79 13 61 253 71 368 74 144 63 18 67 117
423 62 157 53 605 55 846 51 426
138 52 168 54 98 56 343 63 258 65 96
77 57 290 49 22 50 526 70 305 71 42 58 253 69 279 76 58
72 57 575 81 443 73 429 69 403 80 749 59 157 53 361 55 62
344 54 263 60 258 58 18 68 93 65 177 67 189
255 66 1817 79 49 75 878 56 91 74 272 72 290 65 582
154 64 582 56 727 60 96 68 229 72 227 63 177
66 64 1817 56 1407 83 3015 84 312 75 93 27 6
1438 74 260 58 117 68 150 72 114 63 189
859 65 229 72 193 67 150 63 93
193 57 525 62 403 80 463 61 279 77 607 75 84 76 191
722 61 305 71 104 78 252 76 165
156 79 410 70 104 61 42 77 163 58 368 75 275 78 226
65 64 290 74 341 68 193 65 227 67 114
202 81 444 62 429 55 1259 82 1242 41 367
772 79 642 64 272 58 144 72 341 67 260
189 66 93 80 842 79 488 84 580 77 521 71 275 69 84 64 878
157 70 165 61 58 77 130 78 3 69 191
58 71 163 75 521 78 220 69 607 76 130
73 70 252 77 220 71 226 76 3
119 64 49 75 488 74 642 71 410 58 13
35 81 241 62 749 69 463 75 842 84 471 86 1449
77 73 444 62 443 80 241 82 289 85 523 86 182
31 81 289 73 1242 85 1155 91 1412 87 43 41 1245
93 88 2512 93 230 66 3015 84 1036 27 655
81 93 586 66 312 83 1036 80 471 90 1531 86 233 75 580 97 999
38 87 1477 81 523 82 1155 86 65
20 87 986 89 185 81 182 80 1449 85 65 90 507 84 233 94 662
44 89 1523 85 1477 86 986 91 129 82 43
328 95 1065 83 2512 93 1406
565 92 70 91 1251 87 1523 96 751 94 658 86 185
157 86 507 94 315 98 1748 84 1531 97 1255 99 258
333 92 2431 89 1251 41 372 82 1412 87 129
109 91 2431 89 70 96 2849 99 1391
321 88 1406 95 1203 83 230 97 1214 84 586
1302 89 658 96 1311 90 315 86 662 98 1857
68 100 2029 88 1065 97 507 93 1203
105 92 2849 89 751 94 1311 99 1335 98 577
666 95 507 93 1214 102 1400 90 1255 84 999 99 738 100 455 101 151
657 90 1748 94 1857 99 1381 96 577
126 102 1994 90 258 98 1381 97 738 92 1391 96 1335
166 95 2029 101 2382 97 455
160 102 2317 100 2382 97 151
250 97 1400 101 2317 99 1994
