231 613 11
196 2 263 3 333 4 119 6 142
143 1 263
269 1 333 5 308 10 200 6 154
198 1 119 7 396 6 108
201 3 308 8 13 10 302
224 3 154 1 142 10 224 7 135 4 108 12 320 13 116 14 3
389 9 78 12 217 6 135 4 396 11 112
110 5 13 10 383 16 38 19 52 13 140 17 266
242 7 78 11 268 12 278 15 127 14 28
259 3 200 5 302 8 383 6 224 13 176
94 7 112 18 121 15 162 9 268
147 7 217 9 278 6 320 14 217
405 10 176 6 116 14 120 21 251 8 140 20 180 17 212
118 12 217 6 3 9 28 15 214 25 29 18 216 13 120 21 288
123 11 162 9 127 18 132 14 214
96 8 38 19 275 24 119 28 35
244 19 273 8 266 13 212 30 8 20 70 26 116
139 11 121 15 132 25 249 23 178 14 216
152 16 275 28 212 8 52 26 68 17 273
136 27 61 21 172 13 180 30 126 31 164 17 70
452 25 18 14 288 27 289 13 251 20 172
126 24 144
252 32 164 25 157 18 178 29 147
204 22 144 16 119 34 208 39 15 28 206
141 18 249 23 157 29 273 27 42 21 18 14 29
153 28 137 19 68 30 269 33 177 17 116
179 35 298 25 42 29 184 31 90 21 289 20 61
82 16 35 34 133 19 212 24 206 26 137 33 119
131 32 304 36 145 35 11 25 273 23 147 27 184
128 20 126 31 301 33 160 26 269 17 8
201 35 302 27 90 43 75 30 301 20 164 33 98
116 40 7 41 422 23 164 36 259 29 304
162 34 93 28 119 43 67 37 332 30 160 31 98 26 177
160 37 103 44 114 39 222 33 93 28 133 24 208
317 40 62 36 200 43 22 45 261 31 302 29 11 27 298
148 40 364 32 259 35 200 29 145
269 34 103 44 224 43 37 33 332 46 232 38 86
651 43 320 37 86 50 100 46 154 49 10 52 29
136 42 162 34 222 44 219 24 15
87 41 237 47 9 45 333 32 7 36 364 35 62
126 59 556 40 237 32 422 47 354
276 64 66 39 162 44 119 56 158 62 249
565 35 22 45 292 51 275 31 75 33 67 37 37 52 31 38 320
221 42 119 56 61 34 114 39 219 48 162 46 12 37 224
223 40 333 47 231 35 261 63 191 43 292 51 21
836 44 12 37 232 48 134 38 154 57 6 49 81 54 38
338 69 192 59 323 40 9 41 354 63 375 45 231
821 56 99 44 162 58 151 46 134 57 144
502 50 56 38 10 46 81 53 29 55 10 54 21
819 38 100 49 56 52 82 55 5
153 67 288 63 233 45 21 61 104 43 275 52 20
589 51 20 43 31 61 102 50 82 38 29 55 49
806 55 47 49 29 54 49
674 57 20 46 38 60 74 53 49 55 4 49 21
409 61 38 50 5 52 49 60 1 53 47 49 10 54 4
229 42 158 62 165 66 134 44 61 48 99 58 105
621 58 37 48 144 61 57 60 90 46 6 54 20
186 66 146 56 105 70 100 68 112 48 151 61 147 57 37
258 83 60 69 2 74 542 76 228 41 556 65 141 47 323
576 61 54 57 90 55 1 54 74
783 68 39 67 103 51 104 58 147 52 102 57 57 60 54 55 38
148 64 279 42 249 71 79 56 165 66 188
230 69 372 47 375 67 102 45 191 51 233
231 72 281 79 197 42 66 71 111 62 279
146 78 152 74 418 82 260 59 141
228 62 188 71 83 56 134 70 192 58 146
293 73 311 69 172 68 32 63 102 61 103 51 288
135 73 321 77 117 70 257 67 32 58 112 61 39
374 84 205 83 549 73 63 59 2 47 192 63 372 67 172
305 75 88 71 186 77 14 66 192 68 257 58 100
150 80 88 79 274 64 111 62 79 75 286 66 83 70 186
139 81 213 64 281 79 15
328 84 303 77 79 69 63 68 321 67 311
41 76 161 82 186 59 542 65 418
79 80 187 77 218 71 286 70 88
154 87 288 86 229 90 183 83 129 93 54 74 161 82 257 59 228
141 80 210 84 185 73 79 75 218 88 104 68 117 70 14
39 91 158 87 116 82 282 65 152
498 80 72 81 350 72 15 85 138 71 274 64 197
163 77 210 88 103 92 328 85 132 75 187 71 88 79 72
458 72 213 79 350 85 147
28 78 282 87 107 74 186 76 257 65 260
62 84 79 86 429 69 549 59 60 89 217 76 129
282 77 185 73 303 88 317 69 205 83 79 89 288
262 80 132 97 196 99 58 81 147 94 261 79 138 92 239
72 96 87 90 313 89 182 83 429 76 229
77 91 216 78 116 82 107 93 351 76 288
85 80 103 84 317 77 104 95 210 92 92 98 126 104 209 89 55
329 84 288 86 182 83 217 98 288 96 230 88 55
203 111 56 100 126 86 313 96 367 93 381 76 183
23 93 201 87 216 78 158 102 134 109 53
152 80 328 97 89 85 239 95 300 101 60 88 92
97 111 308 91 201 109 263 87 351 90 381 76 54
370 99 175 85 261
255 101 290 92 300 88 210 104 264 108 21
278 100 141 86 87 90 367 98 107 89 230 103 276
180 99 187 85 196 92 89 101 221 106 165 105 7
84 107 127 104 213 89 288 88 126 110 173 96 107 103 109
127 97 187 94 175 105 170 85 58
445 111 372 114 240 115 135 96 141 90 126 103 215
100 97 221 106 186 95 290 108 128 92 60
158 91 134 109 430 113 179
62 100 215 112 5 114 222 98 109 110 285 96 276
112 95 264 108 186 98 213 107 219 88 209
192 97 7 99 170 106 282
101 97 165 105 282 101 186
92 108 187 112 139 98 127 104 219 110 169
54 95 21 101 128 112 185 107 187 104 186
687 111 300 91 53 102 430 116 403 113 82 93 263
67 112 246 98 173 107 169 103 285
193 93 308 109 300 100 372 115 415 90 56 116 193 120 5
82 108 185 117 335 103 5 114 41 110 246 107 139
94 102 179 109 82 116 248 118 255 124 91
222 100 240 117 399 112 41 115 264 103 222
273 111 415 100 135 120 562 117 20 114 264 123 126
433 111 193 109 403 113 248 120 13 124 121 125 464
90 112 335 114 399 122 430 123 76 115 20
205 119 30 113 255 128 388 124 144
239 133 293 118 30 121 349 128 295 127 44
1111 111 5 134 261 116 13 138 172 129 261 123 178 115 562 125 241
204 133 70 137 98 119 349
122 117 430 123 332
72 132 312 131 42 134 169 120 178 117 76 122 332 115 126
134 113 91 118 144 128 98 116 121 126 267 125 163 127 96
589 116 464 120 241 126 165 124 163 129 265
371 125 165 124 267 130 327 127 10 129 71
90 133 169 119 44 128 280 139 233 140 224 126 10 124 96 130 184
119 119 295 118 388 127 280 124 98
962 120 261 138 68 141 378 142 2 136 0 135 66 126 71 125 265 130 153
112 139 242 135 41 126 327 129 153 127 184
118 132 436 123 42
162 123 312 131 436 134 397
136 140 254 157 106 137 165 127 169 119 293 121 70
250 132 397 120 261 138 191 123 169 167 136 153 282
448 164 233 169 36 136 76 139 496 155 115 152 133 130 41 129 66 143 103
748 141 238 146 74 129 0 135 76 143 173
196 151 258 133 165 157 279 121 98
922 134 191 120 172 129 68 153 271 144 60 142 287
485 140 168 155 38 135 496 127 233 130 242
248 133 254 157 240 139 168 155 365 127 224
749 142 185 146 32 129 378 136 238
483 138 287 141 185 144 120 146 55 129 2 147 20
462 136 173 135 103 152 13 146 45 150 209
620 138 60 142 120 153 23 147 36 156 86 145 84
418 161 23 163 169 144 84 153 17 158 13 159 40 156 69
732 141 32 142 55 136 74 143 45 147 70 150 6
216 142 20 146 70 150 9 144 36 158 43 154 4 156 20
686 180 496 181 332 173 457 175 98 169 608 178 44
167 199 248 180 573 202 136 193 176
904 152 6 143 209 146 6 160 169 147 9 154 42
805 171 309 155 56 157 211 137 258
384 164 295 165 41 135 133 163 18 162 124 160 105 143 13 150 6
414 134 282 167 376 165 28 138 271 163 102 144 23 145 17
606 150 42 160 40 158 33 147 4 159 29
512 171 476 151 56 157 160 169 180 139 38 140 365 135 115
775 144 86 158 30 147 20 145 69
101 151 211 133 106 155 160 137 279 140 240
443 154 33 147 43 159 32 156 30 145 13
565 160 3 161 42 158 32 154 29 145 40
649 152 105 162 83 150 169 161 25 159 3 154 40
310 162 67 160 25 159 42 163 15 145 23
380 152 124 163 82 160 83 161 67
1193 165 252 152 18 162 82 161 15 153 102 145 169
489 166 41 168 366 169 38 165 93 152 295 135 233
969 168 247 172 234 164 93 167 91 163 252 152 41 153 28
1011 173 370 169 305 168 488 164 41
245 170 310 172 203 134 136 165 91 153 376
563 173 90 166 488 175 192 172 52 164 366 165 247
425 171 602 148 608 173 99 166 305 164 38 155 180 135 36
638 174 387 167 310 172 208
409 155 476 151 309 169 602
400 174 31 175 293 170 208 168 52 167 203 165 234
817 148 457 175 177 169 99 166 370 168 90
169 177 450 175 143 170 387 172 31
531 148 98 178 468 173 177 174 143 177 128 168 192 172 293
55 182 163 179 212 184 266 183 343 186 3
149 178 120 174 450 182 474 175 128
60 181 425 148 44 175 468 187 324 182 188 177 120
89 176 212 183 16
39 148 496 149 573 181 555 193 309
427 180 555 148 332 193 260 187 374 178 425
114 178 188 177 474 187 52 185 83 176 163 184 388
184 179 16 189 480 176 343 191 279 186 243
605 182 388 176 266 185 172 186 383
310 182 83 187 387 184 172 188 101 186 209 190 135
550 184 383 183 243 176 3 188 232 185 209 191 2
160 181 374 178 324 193 83 182 52 197 180 185 387 190 205
437 186 232 191 316 195 3 190 194 185 101
81 196 119 194 618 183 480 192 89 191 42
414 197 129 198 45 187 205 192 125 188 194 195 164 185 135
587 189 42 192 327 183 279 188 316 186 2 195 12
313 204 169 200 14 194 273 198 372 189 89 190 125 191 327 195 165
89 180 309 149 176 202 220 181 260 187 83 201 309 197 230
155 200 289 196 541 192 273 189 618
634 192 165 188 3 191 12 190 164
254 203 504 200 201 194 541 207 120 189 119
438 193 230 201 334 187 180 198 474 190 129
466 206 218 201 49 204 22 212 298 197 474 192 372 190 45
231 205 164 149 248 202 164
362 214 149 203 271 204 421 211 268 196 201 194 289 192 14
121 202 232 193 309 206 240 209 222 197 334 198 49
261 199 164 149 136 205 321 193 220 201 232 209 356
252 214 213 213 26 200 271 207 643 196 504
549 211 211 212 430 200 421 192 169 198 22
611 199 164 202 321 209 198
165 215 342 212 250 198 218 201 240 209 214
199 210 517 213 76 203 643 196 120
411 222 221 217 410 209 542
298 202 356 205 198 208 542 217 88 206 214 215 272 201 222
243 218 569 213 164 207 517
607 214 293 216 96 204 211 200 268 212 148
96 216 257 206 250 215 214 204 430 211 148 198 298
353 218 303 220 58 210 164 214 579 225 188 224 144 203 26 221 300 207 76
515 226 264 220 36 216 487 213 579 203 213 200 149 211 293
233 217 358 216 202 206 342 212 214 209 272
92 219 58 226 89 228 38 217 478 214 487 215 202 212 257 211 96
333 222 644 219 26 208 410 216 478 215 358 209 88
502 224 16 213 303 210 569
132 222 787 227 150 217 26 216 58 228 388
78 230 350 226 543 224 22 214 36 213 58 221 399
838 220 399 225 230 213 300 224 134
257 208 221 219 787 217 644
54 231 0 230 246 227 278
238 218 16 220 22 225 317 213 144 221 134
361 213 188 224 317 221 230
80 230 153 229 303 227 121 220 543 228 218 216 89 214 264
230 223 278 230 58 219 150 229 229 226 121 228 106
236 219 388 229 231 227 106 226 218 216 38
381 227 229 226 303 228 231
508 223 246 231 293 227 58 226 153 220 350
108 223 0 230 293
