295 808 11
168 3 919
171 5 622 11 702
96 7 719 6 25 5 525 1 919
74 11 151 51 1544 45 534 25 982 13 240 15 110
125 3 525 2 622 6 274 12 31 10 498 11 211
237 3 25 7 806 5 274 10 642 9 123
844 3 719 6 806 8 3 9 358
146 7 3 9 472
320 6 123 7 358 12 20 10 673 14 214 8 472 16 610 15 59 17 263
203 6 642 12 706 5 498 9 673
79 2 702 12 642 5 211 4 151 14 256 15 745
397 11 642 14 858 9 20 10 706 5 31
189 4 240 25 902 15 1246 21 145 17 327 20 420
804 12 858 11 256 9 214 15 1102
248 11 745 14 1102 4 110 9 59 13 1246 17 598
320 18 509 9 610 19 181 17 474
470 9 263 16 474 15 598 28 73 19 367 13 327 24 71 29 132 26 332 20 161
134 19 497 16 509
53 18 497 16 181 28 904 17 367 22 88
95 13 420 24 217 17 161 21 285
498 25 519 13 145 24 21 26 397 20 285 27 122 32 3
99 28 242 19 88 34 115 39 358 30 576 40 307
59 38 247 30 188 31 143
342 17 71 26 191 20 217 27 70 21 21
639 4 982 32 488 45 989 13 902 21 519
696 24 191 17 332 29 799 32 4 21 397 27 136
580 24 70 26 136 21 122
65 17 73 19 904 29 408 34 541 22 242
227 28 408 17 132 26 799 35 639 34 62 32 204
49 39 76 22 576 38 565 23 188 42 221 44 212
417 38 247 37 311 23 143
73 25 488 45 371 26 4 21 3 48 476 35 245 29 204 36 134 41 503
211 99 149 64 505 51 855 88 435 65 891
201 28 541 35 358 43 107 40 429 22 115 29 62 36 208
267 34 358 29 639 32 245 41 360 36 61
463 48 65 35 61 34 208 32 134 41 536 43 485 53 430
738 38 386 31 311 50 649 42 101
252 42 108 30 565 37 386 31 247 23 247
145 44 317 46 265 22 358 40 287 30 76 43 65
240 34 429 39 287 22 307 43 233
109 35 360 32 503 36 536
215 38 108 30 221 37 101 49 425 44 311 50 534
172 34 107 36 485 53 227 39 65 46 417 40 233 47 137
433 39 317 46 366 30 212 49 210 52 205 42 311
308 4 534 25 989 68 521 51 535 71 823 32 371 48 45 57 220
142 39 265 47 156 43 417 52 247 44 366
531 53 278 46 156 43 137 52 236 56 207 55 95 60 92 61 221
369 45 45 57 800 32 476 58 378 53 454 36 65
284 44 210 52 320 42 425 54 590 50 338
787 37 649 49 338 42 534
148 4 1544 64 1027 68 177 33 855 45 535
249 46 247 49 320 44 205 54 15 55 421 47 236
237 48 454 36 430 59 152 47 278 43 227 58 59 56 175
696 49 590 52 15 80 297 55 331 76 551
271 52 421 54 331 47 95 67 210 61 166 76 22
913 59 170 53 175 62 69 47 207 60 100
119 71 770 45 220 72 326 48 800 58 6
375 57 6 48 378 59 260 53 59 72 101 69 118 73 340
591 63 157 69 56 62 15 58 260 53 152 56 170
384 62 57 66 70 56 100 47 92 70 112 61 108
110 47 221 60 108 70 207 67 248 78 22 75 129 55 166
816 63 40 59 15 66 49 56 69 60 57
705 69 121 66 62 59 157 62 40
114 68 546 51 1027 88 384 33 505
374 117 113 99 322 33 891
757 63 62 62 49 69 57 70 31 60 70
102 61 248 75 198 76 284 81 91 55 210
132 134 708 150 165 102 732 64 546 51 177 45 521 71 346 88 567
868 63 121 59 56 58 118 66 57 70 47 73 15 74 245
1131 66 31 60 112 69 47 61 207 78 121 74 162
549 102 579 68 346 45 823 85 256 72 214 57 770
210 71 214 85 590 57 326 82 115 58 101 73 528
187 72 528 58 340 69 15 82 61 74 130 83 311
905 69 245 70 162 73 130 78 114 83 178
165 67 198 61 129 84 33 81 141 78 383 96 45 89 145 87 22
766 54 551 80 113 67 284 81 555 55 22
123 86 252 79 302 90 305 93 85 80 260
303 70 121 74 114 61 22 83 358 75 383 87 47
51 86 226 77 302
227 90 349 77 260 54 297 104 293 93 42 122 133 76 113 81 105 91 26 103 58
385 80 105 67 91 76 555 92 321 84 293 91 13 75 141
847 112 164 109 352 85 33 72 115 73 61 97 114 83 521 87 125
1022 73 311 74 178 82 521 78 358 87 11
615 92 198 75 33 81 293 89 206
231 102 488 136 19 137 673 71 256 109 35 72 590 82 33
70 79 226 77 252 93 173
797 82 125 97 115 83 11 78 47 101 104 96 237 75 22 98 38
171 99 145 111 533 134 180 64 384 68 567 33 435
707 92 110 84 206 105 28 95 14 96 192 75 145 100 80 94 33
39 93 212 77 305 80 349
183 122 421 80 26 133 122 92 388 81 13 127 161 95 58 121 53
381 84 198 89 110 95 169 91 388 81 321
166 86 173 90 212 77 85 104 575 80 42
523 96 116 89 33 98 42 107 75 106 23 100 139
608 92 169 91 58 105 141 120 82 121 93 108 11 89 14
673 94 116 89 192 98 70 87 237 75 45
1217 112 67 115 49 116 107 110 38 82 114 101 95 87 115
681 101 30 96 70 87 38 113 31 94 42 106 16
494 117 237 33 149 65 322 111 303 88 145
479 105 119 108 15 118 34 89 80 107 6 94 139 119 12
1067 110 7 97 95 113 111 87 104 98 30
151 142 172 150 839 71 579 68 732 85 488 137 198
248 104 824 122 313 80 58 141 565 129 126
236 80 293 93 575 103 824
620 108 44 95 141 100 119 89 28
594 123 4 114 83 98 16 113 14 107 66 119 6 94 23
75 106 66 94 75 119 58 100 6
769 105 44 120 52 100 15 118 75 95 11
298 136 336 138 163 112 183 116 114 85 35 82 352
310 115 18 128 143 132 125 114 14 97 38 101 7 113 125
169 99 303 143 5 134 430 88 533
443 116 84 97 67 109 183 82 164
553 110 125 101 111 114 95 98 31 106 14
446 132 31 110 14 123 93 113 95 106 83
684 126 115 116 136 128 46 97 49 110 18
1198 138 45 112 84 109 114 130 16 115 136 126 47 97 107
420 99 237 65 113
841 120 26 108 75 124 78 100 34 119 22
424 124 51 118 22 123 34 107 58 106 6 100 12
1125 121 208 125 72 124 37 118 26 108 52 95 82
220 135 73 127 252 91 53 120 208 125 46 95 93
100 133 153 91 421 80 133 103 313 129 248
813 132 33 125 94 124 7 114 93 119 34 106 4
483 120 37 125 93 123 7 118 78 119 51
1479 146 13 131 11 132 166 135 49 120 72 121 46 123 94 124 93
659 130 173 115 115 116 47 128 116
170 139 76 133 111 135 83 91 161 121 252
830 130 56 115 46 126 116 131 1 132 41 110 143
101 122 248 103 126 139 194 133 113 141 378
183 138 300 147 199 116 16 131 208 128 56 126 173
812 147 21 130 208 128 1 146 276 148 94 132 280 125 11
1164 128 41 131 280 110 125 114 31 125 166 123 33
215 122 153 139 125 91 122 127 111 129 113
112 111 430 152 438 143 844 150 160 68 708 88 180
106 139 406 146 398 149 53 127 83 125 49 121 73
53 140 381 137 105 85 19 109 336 138 251 144 291
41 142 134 102 198 136 105 140 615 85 673
177 136 251 147 140 144 231 130 300 116 45 109 163
162 133 125 127 76 135 406 129 194 141 388 149 332
190 142 28 136 381 154 39 144 100 151 367 137 615
194 163 440 103 565 139 388 129 378 149 138
105 150 370 160 420 151 500 156 189 102 172 137 134 140 28
435 111 5 152 56 162 174 134 844
606 136 291 140 100 138 231 153 218 154 290 147 110
248 225 23 221 428 191 48 220 79 209 440
658 131 276 148 218 149 175 135 398 125 13
687 138 140 153 168 144 110 159 291 149 50 130 199 148 416 131 21
1296 147 416 146 218 131 94 149 370
418 163 208 173 149 176 344 169 12 159 482 147 50 139 332 141 138 146 175 148 370 135 53
166 152 331 134 160 164 420 142 370 160 292 68 165 102 839
83 142 500 140 367 154 306 156 53 157 169
237 162 686 143 56 134 438 170 74 150 331 164 551 166 83
210 157 213 154 190 144 218 156 82 147 168 159 450 165 107
96 140 39 151 306 153 190 157 232 144 290
481 248 289 217 122 225 77
61 142 189 151 53 160 71 153 82 157 418 165 593
161 151 169 153 213 156 418 154 232
452 168 148 175 5 186 321 161 98
378 169 680 153 450 147 291 149 482 165 10 172 137
56 164 40 142 420 150 292 166 294 165 323 156 71 171 79 167 444
602 168 154 162 23 175 95 158 98 170 297
69 152 686 143 174 170 278 161 23
220 173 790 149 208 177 103 141 440
374 152 551 160 40 166 413 150 420
231 160 323 153 107 156 593 159 10 181 241 172 516 171 123
167 152 83 164 413 160 294 170 92 167 350
49 160 444 166 350 175 190 170 55 174 422 171 0 178 149
378 158 148 161 154
63 176 147 180 614 172 440 159 680 149 12 183 117
87 152 74 166 92 162 278 175 258 161 297 167 55
167 160 79 185 23 174 633 167 0 188 396 181 11 165 123 184 438 190 71
92 169 440 159 137 181 351 183 233 165 516
51 163 790 189 295 149 149 176 722 177 23 182 169
135 167 422 178 245 171 633 179 242 188 20
136 186 167 158 5 161 95 179 70 178 276 170 258 167 190
487 189 229 194 288 173 722 149 344 180 530 169 147
390 163 103 173 23 182 285 196 115 195 118 192 47
93 175 276 174 245 167 149 179 177
28 193 371 175 70 186 280 174 242 178 177 188 15
176 194 499 176 530 200 251 169 614 183 485
311 183 379 172 351 165 241 184 451 187 225 171 11 190 46
94 189 159 173 169 177 285 199 252 192 230
266 180 485 169 117 201 237 200 287 181 379 172 233 190 64
75 185 214 181 451 187 65 171 438
550 184 214 187 122 171 23 190 273
77 193 172 191 310 175 167 158 321 179 280
635 185 122 181 225 184 65 190 146
153 193 225 206 362 203 239 174 20 179 15 190 169 171 396
272 194 411 205 175 199 293 173 295 176 229 182 159
77 185 273 201 69 203 432 188 169 181 46 183 64 187 146 171 71
158 145 48 209 463 193 56 207 182 186 310
222 177 47 182 230 197 152 195 83 199 21
41 179 371 188 225 206 93 207 412 186 172 191 56
662 216 519 189 411 180 499 176 288 200 218 213 150 205 232
591 177 118 197 121 192 83 196 157
114 198 220 177 115 197 139 195 157 202 171
21 192 152 199 188 195 121 202 113 196 139
50 204 241 208 22 202 116 196 220
311 189 293 182 252 205 408 197 188 192 21 202 113
58 216 480 194 218 180 251 218 369 201 333 210 303 183 287
79 183 237 200 333 210 299 203 313 190 69
119 208 370 198 116 211 58 205 113 214 234 197 113 199 113 196 171
34 215 106 206 281 201 313 210 270 188 239 190 432
108 208 445 198 241
1063 189 175 194 232 211 529 213 119 199 408 202 113
158 215 218 212 499 193 93 207 276 203 281 188 362
85 209 172 212 224 193 412 206 276 191 182
33 204 445 214 567 202 370 198 22
63 145 440 220 341 207 172 191 463 212 207
147 215 341 218 280 201 299 200 303 203 270
138 213 433 205 529 219 189 214 272 202 58
105 220 612 209 207 224 97 215 144 206 499 207 224 222 56
808 216 452 226 182 194 150 223 70 228 132 211 433 205 119 219 247
60 208 567 211 272 219 802 202 234
216 212 144 206 218 218 290 210 341 203 106 222 544
583 223 806 218 200 200 480 194 519 213 452
212 155 122 248 400 258 25
58 215 290 216 200 223 180 200 369 210 280 222 660 227 317
585 228 435 231 268 211 189 213 247 214 802
227 145 79 224 416 221 672 209 341 212 612
196 225 712 248 86 145 428 220 672 230 419 252 115 224 187
26 224 1110 215 544 212 56 218 660 232 47 237 74 227 35
824 216 806 226 498 218 180 229 38 213 70 227 609
192 220 416 230 431 221 187 242 738 212 97 237 92 222 1110
148 155 77 145 23 221 712 248 495
95 228 479 229 276 223 498 213 182
630 223 609 218 317 229 329 240 41 234 34 232 179 235 621 222 35
94 226 479 229 67 233 379 213 132 219 435 231 169
101 226 276 223 38 239 301 233 275 228 67 227 329 240 28
229 256 415 257 157 242 589 252 265 221 419 224 431
46 233 405 228 169 249 26 245 100 247 457 219 268
276 241 35 243 6 238 125 237 686 235 327 227 179 236 77 222 47
228 239 50 229 275 228 379 245 226 231 405
656 240 194 227 34 243 81 238 20 236 47 235 81
827 234 81 232 327 227 621 236 233
822 234 47 232 77 238 138 235 233
458 242 286 224 92 262 42 254 97 244 263 250 292 232 686 241 61 222 74
770 234 20 232 125 243 21 236 138
472 245 158 246 259 233 50 229 301 240 202
134 239 202 246 168 229 28 244 192 251 12 227 41 234 194 243 23
657 244 22 232 35 243 68 237 61
41 230 589 262 738 257 254 224 738 237 286
698 244 61 240 23 234 81 232 6 241 68 238 21
877 240 192 251 9 250 414 243 61 241 22 237 263
171 239 158 246 137 233 226 249 335 253 65 231 100
292 239 259 245 137 253 288 251 196 240 168
48 249 361 231 457
131 155 289 225 495 221 86 252 686 217 400 258 34
25 253 163 263 169 245 335 247 361 231 26
754 254 34 255 584 244 414 251 207 237 292
110 246 196 253 258 261 145 259 243 255 89 244 9 240 12 250 207
70 248 686 230 265 221 115 256 572 258 129 260 448
163 246 288 249 163 245 65 263 452 259 9 251 258
646 265 614 266 52 262 238 261 288 237 97 259 87 250 34 255 436
160 261 210 254 436 250 584 251 89
103 230 415 257 535 252 572 260 149
51 230 157 242 254 256 535 260 180 264 690 262 46 267 101
82 248 34 252 129 276 20 260 513 217 25
254 253 9 263 133 266 390 261 215 254 87 251 243
119 256 149 252 448 276 144 258 513 257 180 267 249
799 254 288 259 215 255 210 251 145
310 242 738 265 532 264 411 268 331 257 46 237 42 254 238
342 249 169 253 452 259 133
89 268 127 262 411 271 633 257 690 267 175
259 270 237 268 151 262 532 266 174 254 614
273 270 389 273 236 265 174 259 390 254 52
483 276 312 260 249 264 175 271 77 257 101 274 127 278 364
537 270 30 272 452 275 11 265 151 264 127 262 331 271 187
28 293 312 294 286 290 144 292 88 284 107 289 269 274 356
526 266 389 273 211 265 237 268 30 275 429
357 272 15 277 485 264 633 268 187 278 313 267 77 281 31
660 275 452 268 452 277 270 271 15
321 270 211 279 421 275 13 266 236
202 267 127 284 123 269 356 278 492
207 270 429 272 452 279 398 277 48 273 13 268 11
125 258 20 267 312 260 144
547 272 270 279 168 280 132 281 470 275 48 271 485
705 271 313 267 364 281 129 284 68 282 597 274 492
295 277 168 280 470 275 398 273 421
300 279 470 277 132 281 393 287 289 291 261 288 62
697 277 470 280 393 271 31 287 125 278 129 285 343 282 17
283 281 17 283 268 285 159 284 239 286 14 278 597
953 287 5 286 211 285 136 282 268
321 288 83 287 285 289 820 286 283 282 239 269 107 274 123 278 68
1172 281 343 283 136 287 187 282 159
1156 283 211 284 283 287 232 282 14
1007 280 289 281 125 283 5 285 187 284 285 288 34 286 232
669 280 62 291 754 293 8 290 230 292 360 284 83 287 34 289 118
204 290 802 284 820 288 118 269 269
120 288 230 292 835 289 802 269 144
480 280 261 288 754
293 293 1021 290 835 269 88 288 360
200 269 312 294 1143 292 1021 288 8
646 293 1143 269 286 295 1106
164 294 1106
