263 700 11
90 2 18 5 38
433 1 18 62 56
82 5 34 4 3 8 60 11 15
290 5 13 3 3 6 21 7 37 8 30
270 1 38 3 34 4 13 7 41
616 4 21 8 24 7 26 15 42 30 33
45 5 41 4 37 6 26
76 3 60 4 30 6 24 11 46 30 20
295 12 6 13 6 14 7 29 10
182 15 36 26 32 36 15 42 51
86 3 15 8 46 23 27 24 34 30 37
342 30 10 9 6 14 21 28 34 29 1
778 15 25 30 6 9 6 14 14 26 9 29 7
461 30 10 9 7 12 21 13 14
544 6 42 10 36 13 25 26 18 30 19
345 17 4 18 16 22 20 34 1 47 6
287 26 10 36 8 16 4 22 19 25 21 27 24 37 10 47 16
128 36 7 16 16 22 1 33 20 34 2
525 30 4 23 29 28 34 27 31 37 9 41 19 44 24
20 46 2 48 50
14 24 7 46 46 32 41
559 36 22 16 20 17 19 18 1
136 11 27 30 12 19 29 24 12 32 44 41 50
19 11 34 23 12 21 7 32 31
433 29 11 26 13 28 8 17 21 27 13
854 15 18 13 9 29 16 10 32 17 10 25 13 36 17
843 28 12 17 24 25 13 19 31 37 6
1045 30 15 12 34 29 1 19 34 25 8 27 12
211 9 10 12 1 13 7 25 11 26 16 28 1
115 8 20 11 37 6 33 15 19 12 10 13 6 14 10 19 4 23 12 28 15
300 42 80 34 14 35 18 39 96 43 5
14 23 44 24 31 41 17 46 5 21 41 38 5 60 20
545 36 1 18 20 34 5 35 2 43 15
307 16 1 18 2 31 14 33 5 35 36 47 51
288 34 36 33 2 31 18 43 26
339 10 15 26 17 17 8 18 7 22 22 33 1 42 41 43 10
355 17 10 47 37 27 6 19 9 44 42 56 13 58 8 61 17
153 46 27 32 5 45 14 57 44 59 28 60 5
85 42 1 31 96
170 48 15 45 25 59 1 49 24 55 1 111 41
104 23 50 19 19 32 17 44 46 58 15 60 34
260 10 51 36 41 31 80 39 1 43 6
604 36 10 42 6 33 15 31 5 35 26
317 37 42 19 24 41 46 58 38
44 46 5 38 14 40 25 49 32 59 35
53 20 2 21 46 32 5 38 27 45 5 48 29 49 24
195 16 6 17 16 34 51 37 37 56 35
68 20 50 46 29 40 15 49 30
91 46 24 48 30 45 32 40 24
123 54 31 110 29
23 55 30 53 17 112 1 113 1 114 16 115 39
102 60 29 58 40 110 7 53 29 113 57 108 8
48 60 24 57 19 55 2 51 17 52 29 113 2
201 56 23 61 9 50 31 110 9
60 57 22 59 26 40 1 51 30 53 2 111 23 114 15
641 47 35 37 13 54 23 61 41
158 38 44 60 38 53 19 55 22 59 2
20 37 8 41 15 44 38 60 20 52 40 61 29 110 48
441 38 28 45 35 57 2 40 1 55 26
34 41 34 32 20 38 5 52 29 53 24 57 38 58 20
126 37 17 56 41 58 29 54 9 110 27
159 2 56
633 65 25 67 20 69 17 71 6 83 2 87 1
137 66 26 68 22 86 25 89 13 96 7
155 63 25 69 27 72 12 83 50
272 64 26 68 1 73 22 76 16 79 6 96 21
115 63 20 70 17 71 10 74 9 87 27
65 64 22 66 1 70 16 79 26 80 22 89 9
208 63 17 65 27 71 12 72 17 75 35
36 67 17 87 10 68 16 89 28 74 22 78 1 80 1
158 63 6 67 10 69 12 74 23 75 13 215 8 217 4
14 65 12 69 17 75 7 223 39
160 66 22 96 17 76 13 77 29 88 29
66 67 9 71 23 70 22 78 16 214 2 215 9
272 69 35 71 13 72 7 217 6 222 30 223 10
192 66 16 73 13 77 22 79 18 216 4
143 73 29 76 22 88 13 216 1 220 32 221 23
63 70 1 74 16 80 26 213 1 214 22
114 66 6 68 26 76 18 80 20 216 30
75 68 22 79 20 70 1 78 26 213 17 216 2
70 87 10 86 9 89 24 85 25 94 17 95 11 97 14
105 94 35 97 29 92 3 93 14
153 63 2 65 50 84 39 87 12 93 13
134 83 39 87 8 97 14 93 36
82 86 24 96 38 81 25 95 53
58 64 25 81 9 85 24 89 13 96 12
142 63 1 67 27 83 12 70 10 81 10 84 8 89 4 97 24
60 96 100 73 29 77 13 98 21 221 35
24 87 4 64 13 68 9 86 13 70 28 81 24
152 94 1 92 49 91 34
122 94 39 95 25 98 39 90 34
75 94 8 82 3 90 49 93 49
146 83 13 97 5 82 14 92 49 84 36
152 81 17 82 35 90 1 91 39 92 8 95 2 97 1
19 96 56 81 11 85 53 94 2 91 25 98 106
120 64 7 66 21 86 12 73 17 85 38 88 100 95 56 98 5
117 87 24 81 14 94 1 82 29 84 14 93 5
234 96 5 88 21 95 106 91 39 99 82 101 89
216 98 82 100 52 101 42
37 99 52 101 78 232 50 236 61
91 98 89 99 42 100 78 232 55
371 110 18 108 47 104 16 105 1 121 34
418 113 30 108 24 105 6 109 6 122 1 123 32
248 102 16 105 7 121 17 123 10
385 108 4 102 1 104 7 103 6 123 2
41 112 24 109 28 107 18 125 17
14 112 32 106 18 124 32 125 2 137 16
442 110 22 113 27 52 8 102 47 103 24 105 4
112 112 1 113 10 115 38 103 6 106 28 122 16 125 24
28 58 48 61 27 50 29 54 9 52 7 102 18 108 22
79 40 41 55 23 112 6 114 47 124 1
11 111 6 51 1 106 24 107 32 109 1 114 53 115 2 124 13
308 51 1 53 2 52 57 103 30 108 27 109 10 115 34
24 55 15 111 47 51 16 112 53
76 51 39 112 2 113 34 109 38
81 121 67 122 7 123 6 117 2 127 12 139 66
58 122 34 116 2 118 1 120 17 136 8 139 1 141 33
34 117 1 120 32 133 8 136 13 140 11 142 23
433 124 27 137 18 140 17 132 2 134 21 135 14
330 122 19 125 37 137 1 117 17 118 32 140 1
90 102 34 104 17 116 67 123 12
76 103 1 109 16 116 7 117 34 120 19 123 41 125 7
589 104 10 105 2 121 12 103 32 122 41 116 6
48 111 1 112 13 107 32 119 27 137 15
110 109 24 122 7 106 17 107 2 120 37 137 23
255 133 6 131 25 149 16 153 28 159 9
107 116 12 139 64 141 5 144 72 149 35
480 129 4 130 15 157 17 160 14
747 140 19 134 24 159 8 128 4 130 2 138 11 147 2 160 20
481 132 14 134 25 128 15 129 2 157 16
179 136 24 133 16 126 25 149 5
431 119 2 130 14 134 20 135 40 157 5 158 20
55 118 8 136 9 126 6 131 16 138 18 142 2 159 1
496 140 12 119 21 132 20 129 24 130 25
140 119 14 132 40 158 16
106 117 8 118 13 131 24 133 9 141 30 149 3
9 107 16 125 23 124 15 119 18 120 1 140 20
57 133 18 140 4 142 20 159 24 129 11
130 116 66 117 1 127 64 141 25
61 137 20 118 11 120 1 119 17 129 19 134 12 138 4 142 23
117 117 33 127 5 139 25 136 30 149 13
102 118 23 133 2 140 23 138 20
61 144 67 163 63 166 3 172 13
171 127 72 149 14 143 67 163 17 172 19
455 153 32 147 5 173 18 174 10 175 4 176 17
772 147 6 173 25 154 13 170 16
142 153 7 159 28 129 2 160 10 145 5 146 6 154 8 156 14 173 1
72 154 10 170 13 156 4 151 29 152 15 155 7 167 38
99 127 35 136 3 141 13 126 16 131 5 144 14 153 11 172 11 174 28
217 158 29 151 12 152 18 168 31
420 158 7 148 29 150 12 152 12 155 39
74 148 15 151 12 150 18 167 21 168 15
142 126 28 149 11 145 32 147 7 159 8 174 3
179 147 8 146 13 148 10 156 40 170 37
152 157 31 160 19 158 9 156 9 148 7 151 39
147 160 31 147 14 154 40 148 4 155 9
835 132 5 128 17 130 16 155 31 158 7 160 1
334 132 20 135 16 157 7 150 29 151 7 155 9
121 133 1 126 9 153 8 129 8 138 24 147 28
107 128 14 129 20 157 1 147 10 155 19 156 31
155 172 17 174 13 164 12 165 2 171 21 193 6 196 21
479 163 11 166 11 164 24 196 6 197 38
198 144 17 143 63 162 11 166 20 197 39
615 166 15 172 9 161 12 162 24 196 8
73 161 2 169 4 171 17 185 16 193 21 195 14
129 143 3 163 20 162 11 164 15 172 17
190 170 3 148 38 152 21 168 4 179 23 192 47
553 152 15 167 4 150 31 191 24 192 11 194 9
286 173 1 175 22 176 6 165 4 171 11 195 27
538 173 9 146 16 154 37 148 13 167 3 179 8 189 23 195 15
149 174 14 176 11 161 21 165 17 169 11
69 149 11 144 19 143 13 166 17 161 17 164 9 174 20
202 147 1 145 18 146 25 169 1 170 9 175 21 195 1
208 149 28 153 3 172 20 145 10 161 13 171 14 176 17
44 145 4 173 21 169 22 176 15
111 145 17 174 17 175 15 169 6 171 11
290 179 2 180 2 182 12 201 1 202 1 204 14 212 1
218 216 3 221 48 196 10 197 78 205 5 219 31
57 170 8 167 23 177 2 182 2 188 20 189 28 202 47
761 177 2 182 1 183 4 184 5 201 4 210 1
372 193 12 185 20 205 15 210 1 211 23
503 179 2 177 12 180 1 183 8 188 4
610 180 4 182 8 188 11 184 3 186 4
387 185 1 180 5 183 3 186 16 210 17
156 165 16 193 10 181 20 184 1 186 22 195 8 210 6
222 185 22 195 1 189 18 188 5 183 4 184 16
283 191 31 194 38
381 179 20 189 15 182 4 183 11 186 5
540 170 23 195 31 179 28 186 18 188 15
125 194 33
183 168 24 192 32 187 31 194 8
119 167 47 168 11 191 32
52 161 6 165 21 181 12 185 10 196 23 205 2
78 168 9 191 8 187 38 190 33
220 173 1 170 15 165 14 169 27 185 8 186 1 189 31
334 161 21 164 8 193 23 162 6 178 10 197 12 205 26
245 163 39 196 12 162 38 178 78
946 202 6 199 9 203 15 207 7 208 1 226 18
906 198 9 207 1 224 10 225 12 226 2
266 216 1 213 26 205 19 210 1 211 24 218 19
596 177 1 180 4 203 2 206 2 208 1 209 3 210 1 212 3
71 223 32 179 47 177 1 198 6 203 1 204 10 226 9
740 201 2 202 1 204 12 212 4 198 15 208 5
1056 177 14 202 10 203 12 212 5
200 216 30 193 2 196 26 178 5 181 15 200 19 211 8
566 201 2 210 17 207 9 224 2 209 6
819 198 7 199 1 206 9 208 7 209 1 224 14
287 201 1 198 1 203 5 207 7 209 5
760 201 3 207 1 208 5 206 6
1127 185 6 180 1 201 1 184 17 181 1 200 1 206 17 211 8 218 2 224 3
613 205 8 210 8 181 23 200 24
39 177 1 201 3 204 5 203 4
35 80 17 78 1 214 14 216 2 200 26 218 11
104 74 2 78 22 215 14 213 14 218 3
106 71 8 74 9 214 14 217 18 218 14 224 5
340 76 4 79 30 80 2 77 1 178 3 200 1 205 30 213 2 219 24 220 16
141 71 4 75 6 215 18 222 12 224 4 225 11
103 215 14 214 3 213 11 210 2 224 17 200 19
1025 216 24 220 14 221 23 178 31
375 77 32 216 16 219 14 221 20
489 77 23 88 35 220 20 178 48 219 23
337 75 30 217 12 223 1 225 4 226 28
44 72 39 75 10 202 32 222 1 226 20
1022 215 5 217 4 210 3 199 10 207 14 206 2 218 17 225 1
1073 217 11 222 4 199 12 226 4 224 1
296 223 20 222 28 202 9 198 18 199 2 225 4
26 229 33 263 56
265 229 37 263 23 230 35
385 227 33 228 37 230 25 231 25 263 16
200 229 25 228 35 231 30
321 229 25 230 30
67 101 55 100 50 235 49 236 1
127 236 21 235 10 234 2 240 6 242 12 243 19
470 233 2 239 6 240 8 242 9
272 232 49 236 49 233 10 243 25 252 13
43 100 61 232 1 233 21 235 49 241 42 242 7 261 1
860 240 10 239 6 238 12 244 12 250 15 254 9
661 239 3 241 20 237 12 250 13
540 234 6 240 3 242 1 237 6 238 3 241 1
611 233 6 234 8 237 10 239 3 243 18 244 14
682 236 42 242 20 239 1 238 20 250 35 261 4
1006 236 7 233 12 234 9 239 1 241 20
311 235 25 233 19 240 18 244 1 251 9 252 22
71 240 14 243 1 237 12 251 27 254 13 260 13
641 261 7 246 23 247 5 248 28
313 261 47 254 1 245 23 247 25 256 20
187 254 23 245 5 246 25 248 2 249 12
402 261 15 250 36 245 28 247 2 249 7
633 250 17 254 8 247 12 248 7
286 241 35 261 10 237 15 238 13 248 36 249 17 254 8
16 243 9 252 24 244 27 255 13 260 10
87 235 13 243 22 251 24 255 23
168 260 13 255 29 257 5 258 1 259 34
66 237 9 244 13 250 8 246 1 247 23 249 8 256 26 260 33 262 5
183 252 23 251 13 260 19 253 29
23 261 42 254 26 246 20 262 59
58 260 20 253 5 258 15 259 24 262 44
31 253 1 257 15 259 28
85 253 34 257 24 258 28
49 244 13 254 33 251 10 253 13 255 19 257 20 262 10
268 236 1 241 4 245 7 246 47 248 15 250 10 256 42
182 263 37 254 5 260 10 256 59 257 44
159 227 56 229 16 228 23 262 37
