179 369 11
298 15 50 12 339 2 1100 9 530 7 610
834 7 212 5 447 1 1100
538 4 87
1090 6 9 3 87 5 275 17 602
792 6 80 2 447 7 457 4 275
626 5 80 4 9
617 2 212 5 457 9 611 11 7 17 584 1 610
106 79 325 33 308
374 10 42 11 724 7 611 12 852 1 530
378 13 611 9 42 11 630
457 9 724 10 630 7 7 13 1049
265 15 468 1 339 13 520 9 852
511 16 446 19 95 10 611 12 520 11 1049
155 35 257 31 821 15 3154
229 1 50 12 468 14 3154 20 363
388 19 721 13 446 18 112
196 18 352 4 602 7 584 23 1820
242 17 352 21 452 20 336 16 112
304 20 379 16 721 13 95
962 22 452 19 379 18 336 15 363
218 18 452 25 76 23 408 24 99
1039 20 452 28 567 31 168
44 29 138 27 65 25 160 26 203 21 408 17 1820
1224 25 311 21 99
81 26 261 23 160 24 311 21 76
176 27 274 25 261 23 203
912 29 333 23 65 26 274
38 31 461 30 858 29 426 22 567
16 28 426 30 34 23 138 27 333 32 361
519 28 858 31 116 29 34 32 1932
85 28 461 30 116 36 758 14 821 22 168 35 246
478 42 192 39 353 41 258 30 1932 29 361 36 289
137 8 308 58 326 65 122
96 35 296 58 282 47 415
103 14 257 34 296 31 246 47 709
60 31 758 38 0 32 289 43 27
846 44 115 45 186
311 36 0 47 236 48 355
240 42 470 32 353 51 202 44 13 41 293 46 115 45 332
282 42 182 50 139 51 159
663 32 258 44 143 39 293
308 40 182 32 192 51 320 39 470
258 49 309 57 14 55 445 36 27
483 39 13 45 212 41 143 37 115
727 44 212 39 332 37 186 49 514 46 126
181 51 191 39 115 49 505 45 126 63 203 59 3 57 504
223 38 236 52 433 68 103 48 193 35 709 34 415
162 38 355 47 193
524 43 309 45 514 46 505 57 6
25 51 359 40 139 59 210
172 42 320 50 359 40 159 39 202 46 191 59 343
285 65 434 47 433 68 815
409 82 290 64 280 72 254
63 56 381 55 333
123 57 152 54 333 56 132 43 445
164 57 5 62 161 54 381 55 132 60 391
140 49 6 63 347 46 504 66 255 62 96 55 152 43 14 56 5
944 33 326 34 282
52 50 210 51 343 63 275 46 3 64 410
117 61 0 62 382 56 391
164 67 325 62 4 60 0
211 67 152 57 96 70 99 66 242 73 363 61 4 56 161 60 382
101 66 402 57 347 59 275 64 486 72 35 46 203
63 53 280 63 486 59 410 72 313
311 52 434 68 218 95 144 97 413 79 562 33 122 81 371
932 63 402 72 184 57 255 70 219 62 242 74 131
113 71 344 61 325 62 152 73 6
62 65 218 47 103 52 815
88 99 227 88 229 95 88
466 66 219 62 99 74 256 73 191
214 81 278 77 142 67 344 73 201
103 53 254 63 35 64 313 78 291 82 240 74 39 75 241 66 184
177 71 201 67 6 77 213 76 145 70 191 74 145 62 363
723 72 39 75 197 76 183 70 256 66 131 73 145
388 78 213 72 241 74 197 76 233
242 77 121 78 144 75 233 80 152 73 145 74 183
44 81 423 71 142 80 363 73 213 76 121
257 72 291 82 6 84 235 75 213 83 148 80 216 76 144
94 88 167 8 325 65 562
238 81 258 77 363 92 437 78 216 83 65 76 152
46 92 182 80 258 71 278 77 423 94 495 65 371
626 53 290 78 6 72 240 93 237 89 106 84 24 91 1
93 92 0 78 148 85 85 84 321 80 65
699 78 235 83 321 85 36 89 304 82 24 90 97
800 83 85 84 36 93 74 90 143 104 1271 106 2110
798 126 16 123 28 132 59 130 44 127 34 134 19
788 159 180 141 11 155 103 102 65
68 69 229 79 167
1087 84 304 82 106 91 227 90 19
580 85 143 93 42 89 19 84 97 91 37
849 93 208 89 227 82 1 90 37
216 81 182 80 437 83 0 101 173
1017 85 74 82 237 90 42 91 208
165 101 421 81 495 97 608
573 65 144 100 68 97 462 69 88
282 99 1376 121 666 110 2606
345 65 413 95 462 94 608
119 100 145 101 227
134 69 227 110 334 96 1376
106 98 145 95 68 104 239 103 307 101 276
101 94 421 98 227 104 449 100 276 92 173
651 87 65
148 109 133 104 271 100 307 106 392
131 103 271 100 239 106 835 101 449 85 1271
247 110 224 109 518 107 283
131 109 544 104 835 103 392 85 2110 107 4554
495 109 585 111 611 105 283 106 4554
56 112 266 111 280 116 415 114 159 117 298
188 107 585 103 133 106 544 105 518
191 105 224 99 334 96 2606 114 6
152 112 386 107 611 108 280
32 114 143 111 386 108 266
903 142 38 138 82
83 112 143 116 276 115 64 108 159 110 6
43 116 509 114 64 118 587 121 64
86 114 276 115 509 108 415 117 665
61 119 509 120 169 118 603 116 665 108 298
124 119 3 115 587 117 603
729 117 509 118 3 120 239
264 119 239 133 280 136 109 124 79 117 169
319 122 148 96 666 115 64
1316 123 124 126 12 125 47 121 148
536 122 124 126 98 86 28
543 133 183 120 79
999 122 47 126 48 127 33
513 122 12 125 48 123 98 127 54 86 16
1091 125 33 126 54 130 61 86 34
237 139 36 135 128 129 50 138 11
977 135 68 131 52 128 50
814 86 44 127 61 134 22
938 135 25 129 52 134 11
1292 140 11 86 59 137 33 134 44
1543 136 243 120 280 124 183
879 132 44 135 35 137 23 130 22 86 19 131 11
1315 129 68 128 128 138 7 131 25 140 5 137 145 134 35
931 143 9 133 243 120 109
16 132 33 135 145 140 165 134 23
1258 139 72 145 24 142 106 146 12 113 82 135 7 128 11 140 162
208 145 77 128 36 138 72
932 132 11 135 5 138 162 137 165
348 160 174 157 181 159 244 87 11
656 138 106 146 119 113 38
1196 136 9 147 108
1740 151 234 150 32 152 235
125 151 34 147 252 139 77 146 204 148 221 138 24
475 145 204 142 119 148 4 138 12
1483 151 101 143 108 145 252
597 151 239 145 221 146 4
1695 153 164 152 246 150 61
544 151 181 149 61 144 32 152 156
252 144 234 150 181 148 239 147 101 145 34
1641 149 246 144 235 150 156
893 154 111 149 164
513 157 54 159 50 155 177 153 111
379 159 224 154 177 87 103
208 163 372 168 103 169 251
103 158 192 162 288 160 88 154 54 141 181 159 278
47 166 50 165 404 162 383 157 192
525 157 278 155 224 154 50 141 244 87 180
778 163 362 162 262 141 174 157 88
189 178 142 177 335
168 166 114 163 107 158 383 160 262 157 288
198 166 275 160 362 156 372 168 45 162 107
61 166 244 165 299 170 352
42 166 145 164 299 158 404
125 162 114 163 275 168 282 158 50 165 145 164 244 170 160
50 178 105 176 267 169 83 175 5 173 371
191 166 282 163 45 171 238 170 152 156 103 169 69
159 167 83 171 120 168 69 173 256 156 251
18 166 160 174 51 164 352 171 151 168 152 172 413
170 170 151 168 238 172 205 173 101 169 120
150 174 495 175 89 171 205 170 413 173 332
739 167 371 175 58 171 101 172 332 169 256
334 170 51 175 344 172 495
248 176 457 174 344 167 5 172 89 173 58
59 178 402 177 66 167 267 175 457
68 179 238 178 136 161 335 176 66
61 167 105 161 142 176 402 177 136
149 177 238
