2000 5884 11
4983 1470 208 1501 404 352 1079 1966 1027 1275 108 186 2900 1722 69 1859 825
7615 554 1158 59 1393 1430 876 1786 2118
6854 420 3557 384 2325 1450 1863 737 1108 182 3205 20 1186
6810 648 1054 1477 4589 1917 3141 266 200 465 3678
9047 223 1244 1677 149 1360 1239 1871 182 654 775
1986 1525 886 660 823 113 1119 1204 761
3433 1845 992 164 1058 1215 613 1670 1637 1682 1035
1699 580 170 118 902 1790 2140 1333 1598
4731 1672 1720 1298 302 1080 2296 72 1367
7497 202 1433 348 711 928 130 709 824 1437 996 900 453 937 780 883 17
4945 1299 241 540 1255 125 1503
6240 1424 3575 643 543 343 40 255 742 805 636 545 572 450 3812
224 312 206 1981 1091 815 203 1250 787 1294 2 883 654
5368 1276 1533 352 64 1966 889 1275 980 1891 601
2733 918 383 1596 1652 146 866 1745 1357 450 1022 38 906
9438 225 1758 1921 1866 1784 1053
7217 826 764 139 1207 1674 918 1245 599
7373 1664 137 1950 3436 503 371 67 3194 1351 498
4855 1093 3716 1006 2310 1891 296 1075 395 1224 792 1651 2612 694 2177 1446 2027 1269 672
6532 420 3887 869 526 737 447 3 1186 1647 3005 193 1719
6645 1850 1237 334 406 1202 931 836 760 1232 234
4139 1663 287 1397 946 805 225 290 1810 497 201 1486 534 665 1147 329 337
3757 233 2021 1970 391 770 93 506 1684 1578 1174 1579 236 698 50
4713 1415 517 228 453 1013 457
3487 83 1536 762 1551 1696 2165 653 127
3514 853 142 132 277 198 3121 403 978 1045 974 1853 334 1195 1172 799 1953 1537 511 55 373 368 542
4292 1582 588 1123 13 1054 3067 1050 2897 1044 544 1595 1338
3179 911 1735 817 1291 53 883 424 1391 1177 1770 1326 2496 152 161
6916 147 2442 394 2188 1405 2709
1010 1211 955 493 859 1659 1260 173 295 1212 644
7059 115 1325 99 3420 1669 2061 1667 313 600 1656
3436 1562 88 1858 1357 796 997 1152 769 430 24 649 1481
3635 1928 1383 224 504 1170 804 1199 1446 1242 291 696 115
1623 119 1625 1953 1551 1861 1756 1681 147 1146 230
4639 1286 654 100 1148 1987 162 1937 838
4381 408 1268 682 121 399 462 1943 1266 1194 133 813 1167 221 1176 992 126 1700 85 1824 1017
5479 235 1941 1768 1016 1888 204 104 1527 793 553
3666 545 1944 460 136 1343 2017 15 906 1745 852 450 692
5234 1410 1160 1913 483 707 565 1014 1112 471 228 1019 209
9549 1828 3125 467 359 443 164 1416 1384 47 537 185 3386 1383 1757 551 1601
6022 260 624 1817 1459 1686 314 255 800 860 589 1685 1558
3566 1603 1527 1826 1403 417 1139 456 1657
7383 95 1685 1608 1858 648 3029 266 1034
4678 1666 465 786 585 1309 3978 1757 931 1398 1424 1852 3852
6485 1935 381 1524 1345 56 938 1280 257 1028 1145 606 927
6532 249 1377 695 2272 278 2339 958 529 1510 1274 1011 172 1225 394
4022 443 7500 1383 5886 1376 3066 40 537
175 1267 2049 1648 2946 82 2099 1300 218
4131 1114 574 1567 710 806 1617 524 2314 353 637 1831 1448 1203 3651 995 312
6379 1374 93 279 2266 1983 2257 1234 158 1124 756
4050 177 842 275 722 840 1224 1292 4031 461 2969 332 50 349 601
6097 1345 1625 142 964 1982 1246
7449 1271 10276 1736 13975 410 558 817 1105 1557 2751 1326 1985 28 883
3640 1073 1958 1230 105 480 2310 391 1837 769 66 409 476 490 3027
8078 1045 4093 893 20 26 373 325 2047 368 2885
9054 1935 1547 45 938 1368 191 1280 878 248 331
7697 207 1074 1502 768 1687 1155
7913 351 1681 539 2527 1066 3261 628 1957 230 500 1793 1664 1642 139 1163 1305
7742 1430 1580 2 1393 775 591 1393 1112 1021 280 1786 398
5465 1894 1217 131 332 1811 347 1228 952 129 6 1265 191 766 554
5005 1363 886 219 1381 1251 1181 1978 676
6508 226 1898 1625 2752 1705 1111 1176 773 1998 564 1220 328
2730 907 1477 616 813 1921 206 1902 1024 1354 845
1117 1482 330 1771 2642 123 511 1370 574 366 1402 706 727 1412 295
2795 98 1652 514 2079 1800 1900 488 597 1551 1723 302 2578 876 2240
5931 216 445 1570 2555 1171 80 986 1277 1007 257 541 1574
6183 1664 2429 206 707 1602 611 18 3194 1755 2744 1351 1191
1159 1507 1018 434 157 380 1519 1645 746 922 1013 1687 150
292 910 1929 1706 1867 1673 766 1931 1151
4210 296 424 1323 76 577 1500 1563 2434 1058 1217 1084 245
4530 399 1328 124 733 1943 1096 1898 918 1194 1208
4877 9 1367 1672 361 1080 174 1218 1407 1920 1297
6678 1613 507 1927 44 232 924 307 1350 87 1397 989 389
8072 1941 707 433 1305 1676 2436 1827 1306 1321 120
5577 1725 578 895 484 1162 411 1281 790 824 501 143 706
6532 1561 2223 1342 856 1714 3070 1236 2289 1535 1670
2262 1916 2400 441 3458 1953 1893 1146 2087
2060 830 2628 825 3231 1724 2692 1346 865
5591 1908 1051 579 1311 609 1076
6661 1807 252 396 1401 1940 2037 423 2228
6815 530 1205 581 939 316 1475 753 343 136 544
6482 1137 676 48 2099 1648 627 1968 1022 746 1280 1221 1753 1300 2486
6960 25 1536 1004 618 762 867 1696 407 1135 961 779 1303
7024 1387 2139 236 4 1279 2442 960 1159 1881 1017 1961 1278
620 1954 2044 1055 266 1523 1976 156 2233 1221 225 1175 471 1699 455
3165 464 2070 1355 1029 1911 476 893 2087
6138 73 1397 307 29 989 680 1393 787 1161 1983 1786 220 1528 519
6492 1675 2058 371 3164 400 1831 1513 3340 1168 1879
1220 270 4161 604 1448 703 3652 1743 724 912 2630
7932 1435 2465 768 1806 1148 1630 934 329
3903 1227 1378 321 480 1285 277 711 1698 1988 2756 1463 86
4419 1709 893 886 398 364 1160 1456 1333
5684 1738 1499 525 2350 314 2169 1434 1812
6874 1306 3055 983 782 749 5502 1328 1505 1576 5642 1331 1631 849 3167
1418 1956 1936 648 1094 556 458 43 1685 1608 786 1566 1680
7475 572 1173 802 268 1345 950 505 487 1007 501 189 587 1369 1767 167 360 234 55
5193 529 531 1833 7 106 1150 1219 519 1525 1066 1804 84 285 870 113 95 1013 263
3073 1278 2143 1551 2090 993 429 488 3287 65 1652
4312 31 3420 1669 618 1121 1728 803 1368 1795 364 1667 2789 250 1382
3381 1017 1516 809 771 1286 174 614 324 1987 525 35 1148
5455 850 1665 320 2950 1710 972 1705 3792 1176 444 1362 2406 758 564
3228 1633 927 870 1125 1268 1754 277 575 1102 303
4180 942 578 1022 1403 1433 1282 1135 146 181 1449 1818 295
4633 235 30 37 1527 793 67 1468 572 291 1793 472 1953 797 32
5121 738 76 1868 1664 1038 714 1160 1243 282 1628 1755 274 503 497
7551 1833 2053 97 1150 1632 142 1219 1422
4938 1852 2140 1398 1861 1912 1688 564 3083
4350 958 879 227 1636 1011 2131 1121 222 1444 970 552 1294
6346 1650 600 843 3057 550 3522 1404 1815 212 1345 1453 1257
4143 1878 5720 293 3091 1339 3525 1166 5277 468 508 1458 2395 237 808 1131 250 511 84 1671 3383 1401 2575 818 1301
6282 363 5955 1108 8722 365 351 1386 9324 1497 5620 726 897 1201 172 1519 1651 413 58 1710 1071
1057 170 2189 1238 1457 1074 1240 1185 504 959 1142 507 1333 846 1510
8363 1298 109 97 95 6 1119 1525 94 285 1655 1783 708 1204 1496
6648 1813 2000 562 2058 1587 655 196 1343
8332 31 1325 600 2099 1915 1397 735 2945 1669 2317
4852 1959 709 1672 953 163 1622 1218 1444
2393 1800 5519 759 3538 1138 116 1108 4002 514 2147 527 556
7215 1790 402 996 1083 8 902 764 1195 357 177 1333 2006
6884 34 1625 1861 2039 1244 3873
2833 701 360 776 800 1473 722 963 897
1318 1989 911 629 818 555 1964 1057 1341 422 6 1229 870
6123 319 604 1716 750 1758 456 1305 403 1317 315 618 131 211 1672 1140 261
4572 1036 3227 1742 1577 1771 2746 1412 1207 64 511
3465 1577 1083 1483 2739 71 733 399 1083 1898 2932
3679 11 1503 921 1500 890 635 1299 213 1526 1159
4723 930 487 264 1392 2000 218 1485 91 890 506 155 1534 288 150 1122 739
838 1039 2079 622 1048 1015 1998 331 1876 415 3090 339 486
2778 341 2 1706 1390 1759 891 1009 1209 360 1929 1782 179
9110 1811 576 728 55 567 1662 60 6 766 1004 1996 1361 1965 0 1022 556
4672 287 1303 1542 2044 1591 677 1819 910 857 1339 762 2777 1589 1796 1004 551
3479 909 1178 417 540 1894 1194 439 359 1825 706 1265 783 60 332
1821 1551 1077 853 3601 353 4132 198 2421 26 277
6451 1219 660 228 988 1632 600 1909 1424 311 897 1318 416
6646 1252 2832 1075 1087 1006 2128 1749 1552 863 452 172 2864
5641 1750 325 432 1086 1612 296 1254 903 1255 277
4027 81 544 1644 1027 753 1214 316 585
5764 383 1333 1847 1456 1616 2024 289 197
5954 1231 1236 246 3002 277 1448 1268 2322 1802 2612 1667 2834 1930 261
3298 1494 91 1041 760 674 370 438 1050 1136 1136 17 1207 826 152 1674 406
6556 1952 684 522 111 1206 727 997 749 1842 520 204 490
1778 996 144 1887 1464 900 308 937 1387 337 1208
4240 1345 390 52 964 1982 99 1115 664 1369 292 601 650 1558 447 1313 281 867 905
4729 326 689 1162 249 691 1377 1281 698 1906 292 75 706
2090 479 867 199 861 1038 1195 568 1200 704 768
5822 713 4599 652 2533 247 6915 1910 682 1439 1249 899 4044 885 54
7639 483 737 998 451 1419 790 1626 536 1466 477 15 866 918 462 1745 1305
6128 276 1075 29 2442 394 1672 1879 2117 1405 520 667 1062 962 1454
5561 218 866 303 1166 444 963 980 632 566 931
7070 421 146 1936 1107 732 1100 1774 1023 1869 206 1037 678
6011 1730 1218 1190 2111 1012 2935 1701 1250
2144 286 2655 1893 97 658 1373 308 200 1382 3057 1607 1707 1068 1634
4494 28 161 1326 1706 1177 3057 209 417 896 63 1301 2626
8228 1467 6752 1183 4132 1878 5706 293 3999 919 1030
2157 1547 83 1781 32 757 877 1735 1352 1047 1302 1474 40 1881 1248 1985 1923
5156 288 1475 126 1534 1122 850 1399 1414 1299 135 1526 30
4027 1221 2410 746 764 85 2233 1699 276
2755 1803 1448 1291 969 589 712 1296 350 553 1756 517 574
2471 913 669 1506 853 1119 415 1964 565
5253 611 1029 1857 1100 972 453 1258 1017 294 708 994 1466 1532 709 1352 170
5788 1653 1856 1973 227 1500 2361 509 1639
5772 1843 1696 874 390 962 186 777 221 1237 1640 306 1853 1445 377
1385 621 2247 1239 2447 1732 476 1766 4200
4278 1605 1849 1959 729 116 1622 1517 627 1218 672 927 1112
5864 1051 840 1845 1629 1670 498 7 1058
7367 702 1908 905 716 387 1054 842 166 1810 2272 1835 1022 598 736 1948 27
6681 1974 1457 1960 4 280 2315 1249 2704 556 3356
7079 189 738 1019 1368 96 360 234 1652 1962 162 1720 547 1140 302
7743 1731 88 1118 617 727 1084 1581 854 1986 1096 573 885 895 526
7060 1312 1973 973 2592 1564 1433 310 242 1032 1686 1938 2856
2962 243 315 1120 1739 590 230 494 444 1137 654 1185 4 1300 3281 1267 1542 1238 1245 112 2189
5145 1427 1824 1611 112 1417 1486 459 1190 190 662 499 2135
3217 134 2864 1006 2432 863 418 1490 2861 1885 1340 1341 1707
798 1589 1144 1004 1110 30 295 1212 1451 1375 1853 1659 51 779 568
2207 847 1796 1440 1458 299 2781 1734 450 392 440 1487 293 1327 416
3538 1747 1657 978 393 1597 1828 1043 357
8800 784 577 254 1447 1028 1401 1518 1280 1883 295 1136 145
4888 461 2956 51 842 1243 2237 734 2540 840 1175
6020 741 1312 862 781 257 1398 1520 2426 1060 3317
4324 498 504 1031 821 1360 858 1815 554 1794 1508
4792 1166 173 1489 6608 237 5921 1837 2896 1000 1428 580 2876
8166 839 495 103 1449 1135 1564 1818 179
6990 363 257 384 4302 737 4005 828 293 3 3205
4784 1792 2189 1723 1367 1560 1786 936 3026 953 4767 1024 78 1020 2592 1082 1256
7229 1681 2266 447 2378 1861 236 1244 424 1274 2031 1544 2310
7686 467 233 708 3172 1522 2140 40 3386 551 1964
4452 1 2900 1947 1741 1295 2911 1859 957
5675 773 3017 1434 1284 520 450 533 456 752 2935
5635 1454 2671 1361 1988 925 1675
3329 802 1216 1913 1158 96 587 1019 242 167 738
7877 1490 1160 1417 1374 171 662 943 1031 499 914 561 382 631 2395
4582 1051 155 385 1774 990 1207 1338 207 668 1686 1798 361 1379 114
3451 688 2915 636 1421 1779 1037 1247 2365 1893 297 553 580
811 737 3494 20 1719 1647 384 828 1617 1789 1931 785 571
1837 1673 1872 1766 1947 1239 982 903 2895 678 1757 705 455
8813 1702 2702 1384 231 689 1383 1603 682 1131 1719
2150 1813 946 562 2939 114 1343 1802 4484 1930 4516
6074 1722 1064 395 1117 1295 199 1594 1084 1859 110 1407 953
4082 1551 843 132 2421 1142 1866 26 3121 403 1366
6278 144 861 1038 1819 704 991 274 584 292 1576
6506 1230 2033 1216 192 1496 1135 206 3701 1602 1214
3059 1070 733 680 591 1581 872 1182 408 1337 2047 1083 87 512 420
4270 1816 84 538 530 626 170 928 622 10 1433 900 1530 1698 360
5248 949 8 374 373 411 1297 1297 860 1222 471 512 1188 208 553 1741 933 859 1023
5286 522 900 1206 987 140 490 788 1268
4929 1574 58 1851 3297 1523 830 1186 1187 1641 1850 261 295
4217 1230 1494 480 1709 200 3701 1664 2914 1602 1445 67 707
6573 57 1074 931 1466 1829 600 1502 990
8292 203 553 1222 1301 1707 799 1741 1480 521 1194
6351 896 2708 801 1148 1089 174 780 3163 152 417 1301 159
3150 1892 2586 646 384 557 1165 666 2593 1126 333 1840 978
5990 492 579 1317 209 122 1672 809 1802 1140 11
5153 652 6556 247 2066 109 1345 1404 3725 1453 507
6154 1182 87 1997 1209 372 1102 895 588 297 307
9612 1617 1673 1511 2100 519 1257
4465 389 462 217 766 931 1055 1003 671 1502 546
4971 657 2811 1469 385 505 1448 1007 14 1570 2392 66 445
2784 1481 1100 389 921 1003 507 1198 1121 1502 114 215 766
4278 1077 556 627 1604 1531 239 481 1134 382 213 303 627 148 866 566 266
3577 61 1381 1363 1286 1251 775 1321 3068
8999 540 932 1888 1837 235 537 1299 1339
5760 36 1176 992 1304 1824 946
3570 1515 1019 344 268 1262 1332 1753 21 1151 131 418 1181 414 613
9823 482 900 498 1351 1360 212 1871 924 5 1244
1680 882 3181 1915 1303 735 321 1928 2707 1242 996 33 504
7153 16 1758 1406 891 1784 1358
7540 1098 1647 62 1898 1625 589 758 1463 1705 2775
6435 108 1636 1121 2376 552 927 803 263
4347 133 988 1219 431 1415 126 311 264 1013 300 771 187 24 453
4677 680 908 727 851 1378 1135 1118 415 1222 526
4141 58 500 628 5263 1163 4994 1867 2274
6965 1113 1564 717 1021 1965 1573 728 721
3722 1613 1259 1927 482 73 924 906 615
5380 763 748 1409 568 638 1878 770 246 1579 613 23 2021
3547 96 55 610 258 594 616 1369 103 167 1652 1720 31 867 1760
456 1622 2818 220 537 1888 898 37 1941 1468 954 104 30
4393 1154 1659 923 878 1387 4065 238 4763 84 4 1279 213
3112 1878 8864 1166 4273 110 808 1348 339 180 5921 1333 3153 580 1625
7000 1154 4547 236 4763 1208 7888 1279 562
8493 1610 1990 1197 501 242 224 1189 44 1241 615 1880 361 723 900
5173 354 337 743 1084 797 1040 472 113
165 1787 48 1654 1249 640 1768 1322 1825 1354 770 1287 75 1505 2086 1184 85
4510 289 1640 723 798 866 1986 239 224 1189 1271
2690 1595 1598 1120 3116 1185 3725 170 315
6705 1583 1221 1064 553 1034 418 1659 1317 1694 1200 1433 589
9228 1707 620 350 750 1556 920 1378 60 281 750 974 588 1492 751
5793 250 1381 138 3002 1231 2002 1667 4494
8786 713 1320 652 6235 212 2066 145 6915
6741 1748 409 1935 1406 760 1484 1368 782 1899 1021 56 331
2850 851 706 1820 1639 453 289 695 99 690 432 278 1416 46 1377
5522 1795 1775 1503 1217 1325 1620 99 1382 1195 1985 1667 246 246 1381 799 991 1231 4141
1652 1708 852 841 1558 516 781 381 1127 486 868 1188 750 440 3
7877 424 1295 1908 1012 603 395 1059 1062 1712 474 1630 1429 844 262
5597 1214 2149 1126 454 446 1787 686 1737 1886 363 1472 710 1303 223
8747 1136 1562 674 495 176 1447 1883 178
6050 1203 138 1372 2230 1817 1083 643 597 12 742 1686 1021 41 800 545 264
490 993 1873 1853 1480 403 1857 1142 205
6969 283 2268 1520 2097 178 1398 699 1048 1060 697
7686 1067 251 951 1222 1408 1002 1618 684 1403 166 1357 2009 945 531 968 410 491 103
9523 1093 4909 1470 1841 1427 2185 1611 3334 1341 1338 1417 1067
2936 889 2211 1703 1376 1817 1274 860 728 41 624
3061 1940 2990 1125 1680 1574 3854 849 371 1186 1052 205 295 271 3297
5530 1541 3216 400 1789 1839 718 1513 3130 1607 4941 1320 501
2729 1484 2161 1643 1469 1451 1984 1086 851
1921 1994 1167 1459 365 412 1572 930 1061 2000 207 126 1392
2619 632 844 487 1207 422 493 1485 104 457 668 687 389 1260 620 1229 606
3752 43 1034 648 1221 1608 2815 473 1277 1164 521 1917 3605 4 200 761 361
2773 1107 1478 1180 428 1992 376 338 476 1644 725 431 659 316 84
4171 407 999 537 278 1248 874 1172 567
5281 1353 2222 328 641 1356 449 969 154 1034 1606 1583 1516
8493 89 4161 912 543 952 701 1048 4459 1450 1513 1769 2566 604 187
7625 1940 1308 1572 318 1746 2429 1660 132 442 187 1493 390 1186 307 261 3297 416 1358 1614 1105
7230 369 2098 1098 211 1026 2031 915 837 1428 1857 1692 427
5368 847 1838 1214 1569 1487 1383 1842 470 1303 1017 1805 1143
5648 1008 1182 1471 1015 1038 145 1160 128 506 2125 199 584 673 1677 292 303
3660 1292 2258 1001 1720 51 722 451 1361 840 1442
1490 856 1530 1489 5649 330 5294 147 1075 394 5789 547 27 1879 1749
4109 1438 1339 102 575 1102 1942 138 1448 1231 1582 1268 1108
7781 249 1416 690 1022 534 432 958 2424 46 2339
4455 563 935 1656 1140 1374 919 383 1654 1124 274 50 2266
5017 1153 1826 1249 1284 166 2315 1298 2584 1672 1982 556 823
4858 974 791 245 750 1492 286 303 1571 382 827
1797 105 1628 503 49 1351 1547 1755 752
5042 729 1029 463 2555 295 1101 257 2268 699 199 1520 611
6188 401 5953 1947 5229 1721 1945
7306 97 870 113 1655 776 359 1804 1228 1783 732
6467 151 2655 1607 2705 658 1917 1320 733
7780 720 2955 1710 2528 1542 3593 857 4770 130 1303
5964 890 596 155 1475 1526 1670 126 150
5211 242 1640 137 197 1847 1891 1616 446 866 807 723 233 375 1030 377 407 1288 139 1234 899
305 940 2359 1972 1001 805 907 22 1810 1528 41 497 833
3878 793 1000 1399 893 104 1793 1865 774 797 1211
9100 704 709 199 1576 274 303 671 867 438 1212 673 1915 826 573
5519 1467 5550 1878 3343 153 3999 1358 9110 1991 3900 1339 2175 110 3091 1421 600
7206 994 644 159 708 1466 1168 1532 583 435 428
4683 1302 1719 615 751 1877 577 729 415 699 1991 531 1452 283 1101
3528 70 424 1563 2279 1084 1001 1514 1308 721 2678
6106 1997 528 927 983 1517 703 372 200 213 307 326 404 1162 167
8948 536 1656 596 1978 726 464 784 1647 1524 90 413 981
6537 1075 616 1215 2140 392 2279 174 2781 1327 1190
4472 1533 214 1425 374 1235 1614 1934 322 373 1100 1815 1449
5436 822 325 1216 1966 1496 655 1602 656 1868 1144 332 2679 1319 2340
1290 65 2578 876 2534 1551 769 1733 3820 878 513 748 447 767 1767
8308 218 627 281 1571 1492 630 382 735 980 355 148 1166
7012 1023 2690 664 1422 807 2053 774 442 1018 1294
6809 662 612 1383 3730 551 3281 1522 432 1079 3128 1765 2179
5327 962 2000 161 1853 667 634 1445 229
5112 1927 175 73 1350 1393 1475 87 29 775 485
6260 586 157 1168 3294 812 2242 1382 2316 675 523 1513 82 1607 256 151 200
5590 1712 343 844 351 872 1599 898 36 1531 1120 1900 614 1096 1111
5378 1312 113 169 242 1388 2049 891 2587 1559 1737 977 1464 1776 62 1938 2651 1105 1318
7051 133 897 1318 635 1546 857 731 18 228 264 771 203 701 53 1473 860
7427 823 2070 1981 1762 13 206 815 1009 1942 486
3608 916 890 1969 414 626 477 508 844 455 872
7326 919 3928 93 2169 359 1094 1452 1010 956 1656 1434 185 1738 875
8122 1893 2036 658 2606 1205 2394 1335 495 1320 421
3068 1107 474 1721 2064 530 1096 81 1475 1644 729 136 585 267 84
7153 1085 1822 574 1505 560 1213 1640 1997 1822 23
7113 1124 1131 1149 1358 1076 2003 1836 619
3358 858 593 1305 883 122 604 1716 1660 584 496 1145 81
3776 363 4510 828 1634 101 2950 850 2636 1710 4200
5367 1285 837 1220 496 1724 1090 91 480 1988 2580 830 3032
3936 1530 1631 331 191 1601 148 1072 769 1593 704 1737 625 419 580
5512 697 1901 957 1160 1905 3544 509 965 1063 508 1676 3258 1251 567 1321 1047
3920 980 180 1391 251 1270 750 1492 502 1975 391 1731 1191 1556 110 573 731
1033 336 2180 1911 1704 893 290 55 2047 1484 1130 368 1204 1086 800
4051 1920 169 927 1038 297 404 691 171 1162 1176 143 689
8820 501 922 1150 1144 800 656 987 964 587 749 1261 655
8341 1353 1246 1884 1322 269 641 1104 1681 1034 143
4724 497 642 1486 496 1528 118 22 337
3005 856 3750 868 88 1890 1116 276 5294 547 1500 1576 2045 1253 5902 1179 6248
4978 1015 1287 127 1876 1530 2672 322 191 339 2252 1072 681
5054 1292 4456 1496 1641 51 50 301 2679 1319 715 349 2504 1895 332
3320 1757 544 453 1359 1479 294 750 1412 991 2367
4175 886 1403 1814 1252 1850 709 1456 975 1232 958 21 406
6573 1237 689 1680 2736 1332 48 947 985 1394 1535 345 245
7351 1923 1366 1600 1205 1911 1952 534 529 325 2180 1689 181 489 1339 1086 303
7457 996 1407 1887 82 141 1208 357 558
5351 1277 1320 1992 906 1549 136 267 476 431 984 753 563
7888 127 486 415 319 1919 1798 1598 792 1823 119 452 347 331 2252 445 880 1072 199
4962 1663 88 599 1938 989 1613 583 1622 483 961 918 454
6112 612 2472 1706 375 128 2 360 1410 1255 1556 432 1106 1924 298
9113 1174 379 917 1235 1904 409 1590 1692 1297 668 859 31
8988 1100 1761 1424 2671 805 904 12 40 1082 1816 629 926 1371 336
5485 588 1706 1498 687 1262 898 222 268 418 195 500 1689 934 843
450 1304 2423 814 309 1332 1963 947 873 335 245 406 2119
5788 1767 1174 1613 234 933 737 1932 1328 1373 753 391 187 1704 134
2436 1880 1138 723 744 375 1053 584 288 1288 829
7518 709 791 10 711 928 1057 811 459 508 548 1698 100
5546 461 1782 51 601 1864 3088 332 2504 1895 488
4672 1707 1094 521 2 245 750 565 773 974 905
7494 1066 2381 1877 811 58 1681 1257 2592 1233 2719 539 2797 1196 288
5491 1501 2885 14 64 1276 1418 1 1079 1966 1128
6863 1114 4773 1395 1345 1551 380 49 637 853 1302 132 4132 1831 429 1729 2215
7087 988 496 1290 211 1165 981 240 337 743 880 797 494
5810 1584 1186 359 189 1452 2161 967 761 1348 1049 794 260 1418 678
6981 865 237 454 1145 681 155 1964 910 1506 472 624 1272
6977 118 177 996 661 764 1158 1887 620 337 558 1872 535
1582 1515 41 377 944 1753 1326 584 430 1288 1315
4321 314 1094 1452 2292 1738 1775 388 1188 967 675 355 189
4702 341 1410 128 1929 1782 649 709 330 1612 312 1255 1153 1437 141 1010 379
4058 1836 398 1042 684 1012 1017 768 846 1730 125 1148 734
1032 420 3008 650 352 1158 412 1111 3863 1307 4167 869 2354
3584 111 5955 1710 9319 1769 1750 384 7002 320 4510 1108 1858 828 2289 182 257
5851 1289 603 1709 307 1616 1920 92 1160 475 1430 1456 743 1963 20
5485 111 351 1386 2877 1519 2208 1480 966
8813 1370 724 64 1402 706 907 655 127
3486 1423 1118 528 1095 1822 260 495 425 406 1423 1364 1229
3921 26 542 55 2885 1484 434 1537 2980 325 1204
3570 1098 2265 272 2098 758 717 1692 259
4212 1527 2673 1866 697 1442 1492 1416 3403
3493 88 3164 1675 4738 1367 4410 1110 1002 1916 935 400 1426 724 567
324 895 510 213 1102 1162 1110 297 200
5865 756 627 1425 226 300 1100 1031 1437 1815 338
7475 1752 1745 949 1521 633 1223 203 373 1297 1627 1097 1311
7804 347 1053 723 780 289 1030 1288 1584
2284 1259 4861 1771 1735 1036 1796
4519 418 630 1753 438 1234 1678 358 944 1288 779 289 407
9627 625 1584 1406 282 1654 1510 1784 157 1429 1353 1505 1538
4732 1426 1231 1342 485 429 130 1392 513 1272 1331 1557 709
5873 434 1887 68 1519 1687 958
4621 1432 274 1708 839 641 1954 1143 1307 751 1678 1435 499 486 122 251 1127
7517 1668 1014 565 563 476 785 585 1081 627 204 218 213 281 827 974 676 303 735
7422 563 472 1374 1067 279 1654 137 1333 1616 864 1847 34
6250 363 7002 1769 8413 1450 3888 3 2325 182 4302
6124 1051 1915 1798 219 191 1774 787 606
1969 818 672 511 1422 710 2868 635 2401 915 2388 1463 130
3976 1863 1522 1090 568 165 1054 905 2261 1835 1469
3246 359 1188 1738 1258 1832 1679 1977 625 526 355 967 197
4180 1502 1069 217 921 215 462
1723 1555 1431 1478 2336 832 1901 563 704 1381 2012 1076 845
8042 1073 1261 54 1837 409 2206 346 187 1373 668 1704 2618
2366 1075 4392 299 2279 174 440 1952 313 1651 799 1487 2516
5684 542 870 1165 1225 988 160 730 627 1838 268 1821 229 1971 715
1851 276 5789 547 6596 29 2188 147 1672 1405 229
5868 1295 512 197 1117 1859 1187
9145 1940 1907 1746 2193 1293 16 467 1331 80 1401 708 2073 423 1101
2950 448 1202 1115 230 833 933 601 1018
5913 1366 290 1398 965 1757 1539 851 1275 453 289
4833 1577 2288 682 728 71 1328 36 462 1943 1391 124 1083
5710 672 3274 1541 415 262 1789 88 1831 371 1426 1513 2254 1652 827 1929 2476 724 188
6052 441 1792 1916 6165 1947 1049 284 5953 1721 2295
3411 739 2875 897 4737 778 745 1166 1607 1580 3063 1671 3186
4550 198 1366 256 1857 26 978 1853 879 1142 1349
3528 584 809 1758 837 1151 399 1347 1383 858 721
2939 1436 936 820 997 904 469 1413 505
1930 1750 601 1304 837 367 1423 1364 313 1521 2214 947 255 345 2119 495 811
7413 1092 1840 1700 764 1248 106 1172 993 268 999
3155 1085 1465 560 523 813 1562 36 1268 682 2062
6665 54 476 490 313 1834 116 523 862 535 340 1979 1762 1740 775 391 2206 1373 195
6388 1271 4577 53 558 1301 1538 1326 3512
2504 1978 861 949 1836 1363 1287 203 1297 1741 1678
7621 1723 141 1994 805 1128 1312 1459 1472 487 632 264 1572 1330 930
2849 536 539 726 2818 298 981 1201 633 880 2035 111 58
6572 1262 725 222 613 486 106 1855 1013 440 722 1151 922
8645 622 2769 127 3090 1919 2434 339 319
3212 1660 3257 1055 364 1523 129 1186 2232 1641 1165 271 1358
2678 42 1139 1826 505 835 699 909 520 456 496 1894 679 131 540
2644 344 195 222 1181 377 630 1234 422 1498 1494 1753 942
4061 1593 1030 322 580 1984 674 1518 844 1737 784
1838 20 3887 3 3557 1450 356 650 3435 362 3008 869 2750
7035 1936 1373 149 146 1869 649 1637 1772
4552 121 6 487 361 1390 1172 1330 899 265 493 1057 505 1061 563 1229 2142
4910 1807 4616 396 1101 80 2228 708 2516
2497 911 1868 817 924 733 2433 28 1391 1908 298 603 858 252 1295
3158 1128 1225 1390 571 1330 184 1024 261 1020 1177 1061 1543
2367 1857 1008 620 2097 1990 1965 1409 967 1950 2698 1579 477
929 679 1280 507 1243 1646 22 1539 1681 1282 304 1256 1435 846 469
2260 1159 1595 1475 1834 1283 1402 1340 1471
2604 1342 2417 379 130 1476 1552 1392 850 1236 618
6987 466 242 1562 2266 32 24 649 439 1336 666 1025 975 1308 48 1760 641
6739 338 984 1644 1028 753 227 267 659
6263 341 1106 1750 1582 1521 1385 1924 1691 135 1086 1255 367
3638 1941 306 1063 1541 941 1600 1676 337 74 1305 1827 553 1089 382
1825 1349 1890 582 1736 1507 2277 380 1887 1315 53 68 157
5716 892 586 1592 370 294 428 1532 837 1626 1128 1466 102
6122 1144 383 1113 1018 717 538 955 1211 718 481 1236 437 884 1165
7479 935 1768 1754 1846 1606 726 1545 1159 1035 831 901 381 439 64
4904 1041 1354 671 667 139 1050 292 1212 826 1637
4649 909 1339 131 359 1825 1964 437 64 1545 1065 901 1307
5745 486 1584 251 3 1855 601 414 722 1188 961
2655 77 3458 401 1792 1916 3240 1953 1589
2961 271 187 1614 2213 1493 2326 598 831 1948 202
6578 1416 2469 1918 5376 40 164 47 7500
1825 980 696 1975 570 148 963 1096 593 566 836
4775 1823 2110 784 235 339 880 1601 755 1518 83 1072 1446
6931 253 1787 1303 1819 1472 796
5569 1861 2527 1244 1091 184 2378
6056 877 1628 1198 1313 1115 180 397 1202 833 652
2210 1690 376 722 1123 810 1895 518 1514 1355 531 893 1529
4674 12 3812 1397 424 805 652 545 1649 15 1022 1596 1811 38 692
4311 275 1361 1109 1506 783 2125 1001 513 840 2034 1585 2811
6499 536 1543 1598 1434 1823 1796 784 432 339 347
6044 1757 926 851 1578 398 289 1820 998 333 1359 249 289 750 307
5075 1461 1782 865 921 719 703 681 903 356 1145 1715 105
9759 313 872 626 485 508 84 1698 953
6372 42 1657 1603 14 909 1402 617 252 901 1665 417 496
4303 1260 2121 265 668 1229 2077 555 538 1618 187
3491 697 726 1030 2229 1063 745 780 1119 1089 1494
4938 1611 701 171 1190 1499 1768 1829 912 1003 928 499 498
3605 1258 870 1352 247 1686 879 860 1106 545 1339 1343 310 38 136
9126 177 2956 51 2969 1243 686 1864 78 349 1782
6462 1344 1116 639 920 1436 620 1129 435 910 1943 904 1206
4269 965 900 684 1330 729 2179 283 2555 1520 454 1980 876
3409 703 1603 912 812 804 224 86 2070 1355 1578 1923 1466 1911 1621
2368 1631 3833 546 3559 1477 778 1917 869 761 952 4 3678
4363 973 1222 1876 1866 765 854 477 1243 1308 3054 430 242 1032 510 1617 1389 1025 121
8332 1828 2865 396 1331 185 233 708 2981 1293 2323 40 359
7158 1339 3631 110 508 1458 3201 1636 402 1384 1016
4922 1665 1432 1039 3631 1508 7438 622 7757 1477 6030
5414 1040 326 1826 935 1702 2125 1400 506 835 1472 1187 2885
405 707 1162 1014 273 39 228 618 1019 1711 1034
6968 1587 2195 1468 394 104 1953 240 113 743 662 797 471
4519 1657 1104 1264 536 1164 2800 761 2146 1631 380 266 1277
8510 1955 1797 1639 227 1871 811 592 1014 1635 285
4627 1289 1571 1381 1738 1101 1020 364 1430 1963 1981
3866 382 785 585 1034 627 1801 744 701
5616 1876 1739 466 1243 765 1625 1324 1004 1465 955 595 323
3490 1977 2120 520 1344 1678 1775 1969 532 525 235
8442 1868 281 1319 2389 1895 1497 1038 1392 144 867 568 524
5806 1230 2502 206 1709 1664 1707 54 2310 769 714
6013 532 856 1077 168 1531 935 1900 1158 218 1134
5934 1334 261 1536 2221 1679 1847 1871 716 756 792 498 941 223 900
4220 340 961 583 528 918 1510 998 1310 146 737
6309 1110 3353 724 1587 1367 750 1544 2388 1049 2447 932 428
5546 1112 1575 745 745 1594 1270 946 1258 1446 352
9504 1262 577 1143 1423 500 410 381 122 251 868 414 106 440 1584
5271 632 463 1459 538 265 1207 422 361 2000 397 1330 152 412 632
6059 98 3287 65 597 782 2233 993 328 514 2511
3989 336 1339 1689 3211 958 358 1643 1149 1086 2201 1444 127
4208 54 3027 769 2157 409 313 1979 2053 1797 555
4385 1357 635 258 103 1967 1276 607 1004 968 2336 1102 1000 1554 304
8396 1772 679 496 392 924 661 1317 1238 1017 695 809 468 211 579
5381 1583 2532 1211 146 677 2006 1659 620 30 859
7620 1167 1225 1137 3647 1238 2799 170 444
4545 1423 2355 777 302 1237 107 367 425 947 1852 1394 967 406 811
4296 1197 880 1772 293 1081 1112 1317 1132 492 392 1145 960
398 290 833 22 201 1528 1294 329 642
7289 482 941 223 1351 179 504 1360 133 756 726 1031 1315
4655 171 2135 190 914 1499 535 459 498 561 1769
8817 344 1689 1262 673 1143 975 486 410 934 525 751 770
7359 1150 1411 327 922 800 2149 1734 138 1126 2526 755 1718
3526 1947 951 966 1750 530 1646 1808 1519
7149 1950 1094 18 371 1160 1426 282 49 105 497 1579 1573 1351 1174 698 439
3000 1591 1582 660 791 651 1516 1819 649 529 1567 1589 334
4494 1345 1401 1469 2622 1007 1986 96 487 216 1448
8296 1471 902 1970 605 1160 1488 274 2125 23 1684 698 1247
5647 112 1333 959 836 427 1243 679 684 846 1744
2320 916 437 1529 1069 313 844 455 84 348 548 811 765 1698 192
8782 160 1639 1653 887 1500 26 957 2326 1926 224 1251 1662 323 965
2503 513 1696 1849 3094 1695 1392 1930 3481 1274 3168 600 596
4847 110 84 971 2951 1131 918 386 1422 818 4086 635 782
4385 203 1188 859 775 1222 1574 680 105 1337 104 201 420 1846 562
4846 661 2069 1915 254 1695 2647 510 1696 600 5040
3123 65 2079 1800 1415 117 2147 782 348 527 2656 488 2511
1164 1008 1358 1830 1932 673 961 1899 172 1860 2348
9885 1708 844 1133 1208 1443 1057 841 1271 251 781 1171 1893
2884 1688 854 589 2133 1296 984 157 574 1841 1165
3037 1690 2152 449 1514 1045 1191 1853 1643 893 1934
5468 1876 362 749 1894 214 1257 1617 1339 1511 814 1728 1499 1465 792
8467 533 2112 1678 639 478 1344 187 450 752 2096 525 925
8743 208 1194 1707 1113 350 2 565 827 1156 1127 1741 191 1207 171
8995 976 1125 1697 1643 788 533 997 932 140 111 204 900
6275 1834 2067 1613 81 989 231 409 862 1373 1417 1767 739
5324 806 2003 1831 684 951 1999 49 2314 1408 503 816 1820
8844 93 2350 1738 707 1977 1046 1434 247 520 925 478 235 752 1475
5175 1584 747 388 355 967 1432 1832 517 1816 1901 1418 82 900 233
5760 759 305 1053 2435 117 556 782 1323 789 1100 514 2656
2872 1822 1099 367 1095 560 690 1364 756
5516 504 1567 660 1690 1589 887 1213 1440 1833 1300 97 531 1525 542
5086 1947 724 1721 386 502 1646 1808 518 316 1096 581 1077 81 1205
6258 1411 1542 615 1091 729 3242 295 1452 829 1500
8622 603 17 1059 632 1900 615 1077 1240 481 856
6190 1732 120 795 344 773 2140 520 2112 1678 187 187 456 820 81 1329 2080 1413 1020
8776 278 432 1479 283 690 1752 336 529 1600 2042 958 348 1689 2733
5850 1834 1759 583 1512 1740 1404 989 424 409 340
3109 1598 873 452 1543 880 1026 784 1 298 1656 413 539
1826 268 278 1248 418 1824 911 1172 441 1316 248
6469 1832 602 1816 1420 1071 782 1571 544 202 530 626 573
5135 351 2797 58 2527 1793 1931 1196 1219
2753 220 932 11 1255 1299 697
5008 572 773 802 1377 1914 195 1171 1275 986 314 1848 712 66 1574
3571 393 870 988 1840 1821 1122 1543 1016
6933 921 2164 1560 289 1994 1624 890 1359 930 153
4098 1087 1551 1599 1566 1091 1942 885 919 1439 434
2051 12 572 1686 1677 255 264 450 1649 460 1339 38 1944
4873 1508 8050 1657 1550 1631 4130 1477 7460 1264 643 465 3559
3676 1441 5796 276 27 1179 931 330 1500 394 6596 1514 1928 1405 3
8744 549 2509 1153 3110 720 704 651 3078
3883 720 2374 548 2509 1542 2950 651 730 1819 238
1736 109 3522 1650 398 1453 4429 954 3858 1898 798
4867 185 1964 40 1601 1383 1000 1522 1941 305 3281
4353 1727 764 834 185 227 927 108 1294 803 554 1444 1245
5647 1247 1309 192 580 1893 1343 1291 1802 1296 797 157 1756 557 3158
5499 1787 1668 1193 799 1901 1504 1322 1363 1972 1475 1786 156 2 1158 1430 100
2373 948 1608 1989 410 121 1964 457 538 1229 366 1618 1296
4805 1974 1737 1956 2281 95 458 280 823 166 3356 648 998 1672 214
4665 1559 2157 1247 1371 210 1165 1840 1263 1296 305 553 3158 646 1113
1923 1377 1964 765 1077 1025 405 939 92 1760 1136
3478 1462 2188 1210 1924 1642 2147 637 2253 1793 223 1196 402
5397 1085 228 408 523 813 1314 317 1213 528 690 1822 1031 1364 1118
908 190 382 1499 156 499 1769 642 766 647 1316 631 1012 1987 1135
2166 1587 93 1468 5541 114 2058 196 2939 1930 4037
3693 832 881 1381 81 390 704 1656 1179 279 935 1289 2829 1616 120 383 472
4615 1604 4452 107 3083 1839 326 1366 1162 1912 335 1134 1025 695 275 1852 1148
6109 1668 1068 350 773 521 827 382 563 1207 1562 974 1135
1431 1531 1647 218 266 444 836 148 931 1096 201
5556 1811 244 1552 990 728 3 1939 860 129 1662
6362 1895 2425 479 524 144 1200 1864 603 704 276 671 2320 861 428 1041 377
8657 1655 737 1609 543 1776 399 1152 1028 1907 359 1105 85 1573 1204
3747 1546 268 731 246 656 575 701 119 1693 1257 1512 359 824 337
2504 1178 1070 653 2680 1754 1695 1545 1420
959 802 1530 541 773 1848 657 96 1173 1007 837
6168 324 731 1731 1130 1975 590 1986 1240 168 885 1764 1391
8008 1323 3111 1085 401 317 1505 978 14 1597 384 1226 1714 1640 599 682 317
3075 1992 684 1628 2039 586 2334 1675 1469 1778 1859
5910 876 780 1748 2310 760 943 1873 2124 748 195 1799 411
6967 70 1500 1323 1345 1809 1131 1058 299 874 2173
7219 1114 1294 1567 90 1395 767 1246 2273 837 275 1099 228 1812 797 878 1044
3856 1353 116 1311 1864 733 294 1884 1388 79 1311 1908 340 609 883
6487 237 1625 1837 1652 180 2876 1333 2618 1942 1491 1790 157 8 170
4785 1808 151 864 1251 845 741 530 1077 753 604 1869 1146 81 939
2571 1349 2626 645 718 434 1736 1469 3770 1315 1870
5610 535 1512 989 1 340 1622 483 528 1740 855 998 1005
5876 1515 856 347 288 1880 149 358 430 1288 1280 319 496 1151 195 1145 46 404 809 858 1184
2589 1668 62 476 1034 744 1023 382 1081
6115 575 2334 1675 390 1628 734 308 157 1168 3628 675 2426
10000 1192 1643 1150 973 755 478 987 1376 1536 1354 327 749
1287 344 1706 1983 533 1498 1646 934 212 852 2259
6789 1575 476 1688 1193 1803 1426 1068 1317 517 2133 157 712
7323 1120 2977 1548 3436 1595 743 1691 1013 170 230 1267 3697 1742 1672
5173 831 1 957 759 1926 5654 1905 6398
5862 902 35 1338 1410 668 237 1639 416 474 1014 654 789 1635 1172
4386 1634 1189 901 1233 1550 897 1035 894
8424 234 616 610 921 1720 740 1396 371
2685 1377 941 765 259 477 323 1646 1325 1324 1817 679 683
4677 1497 1607 726 456 298 1978 1524 2781 1138 245
163 1958 675 1517 133 1263 645 798 497 1310 656
5801 442 831 1614 1347 165 736 1835 2407 1948 1243
5916 1663 2725 1397 240 1596 1575 918 446 340 1938
792 513 5040 510 596 115 2099 31 1656 1915 209 1930 2338 1667 4906
2787 1115 998 397 1018 833 51 142 650 1313 1175
6142 678 2030 1924 2126 1788 2108 1380 1834
3715 911 1633 424 858 1389 1276 1077 325 252 395 1059 1987 532 17
1903 270 187 1769 5416 1108 2811 1053 1515 1762 1242 1743 3749 89 1448
5768 1064 1303 1694 756 1719 1888 1104 837 1433 83 942 236
9735 45 927 1368 824 1028 1118 1280 292
3740 1033 628 1357 1284 1967 1505 875 904 491 1004
5966 1925 3402 825 4686 869 4915 1346 206 1647 730
5921 1353 1851 79 1076 1908 328 579 883 1356 1049
4661 234 258 594 921 1286 54 1396 240 1558 641 1937 921 867 336
5111 159 1029 972 1964 1857 1854 1897 1539
5155 341 2472 678 943 1924 2917 1673 1660 1706 1694
2690 1232 361 1814 2199 1718 1420 1682 2790 1670 292
5645 1962 537 1720 566 809 503 1286 760 1396 266 100 324
9335 1411 752 1509 670 808 1410 1726 311 531 1091 295 751 1877 1818
2818 1448 2141 63 813 907 1396 1921 1609
4303 1603 2079 456 252 915 627 635 2237 901 392 1634 2365
7702 1758 1801 707 272 1347 444 471 1019 1711 338 122 131 1140 1157
1993 1761 729 1620 528 1083 932 1904 567 1263 904 798 528 1310 798
1619 769 1372 1857 146 1797 2045 929 1104 1664 1422 426 2097 1950 1432
5732 1889 1868 1732 1258 162 2247
9194 1039 1783 469 7757 1386 7316 127 1048 1477 1786 415 2769 1480 2071 1919 593
6769 692 684 1256 852 1282 1185 1359 449 1266 722
5520 865 62 855 952 356 1272 1976 618 1506 503
6599 1784 1683 1406 727 378 1584
2663 1969 201 1071 860 1116 139 538 573 313 477 202 170 455 485 1698 704
2589 1389 1517 1621 635 1077 185 476 1801 218 1604 744 92 382 204
7037 58 1957 230 5263 1066 615 1867 1517 1331 6862
7307 1989 984 121 818 1100 1750 982 1037 343 926 1057 2149 1371 670
5325 1638 1246 717 1123 1719 1429 1104 498 1965 566
4854 924 1484 943 61 190 2395 561 1012 1017 770 1987 823
3633 1485 1635 265 844 487 463 2000 708
8466 1973 1182 1752 1434 374 1223 1350 2123 1097 862 1385 1331
1272 1789 1915 1998 2111 785 2433 1346 101
2841 689 1083 1603 1188 971 408 617 2237 386 2401 511 782 915 2
3641 1388 2479 688 447 1247 2344 192 1421
1168 1793 2394 559 2253 1196 1034
1670 774 40 763 604 985 1340 233 1878 770 1462
2417 1732 548 1420 1908 462 920 1129 2573 1766 96 904 506
7525 241 1768 1287 1692 1322 1139 1021 1057 1430 500
9508 1432 1428 1708 1112 1133 1079 381 1954
5871 1499 1857 1198 1407 561 766 647 1112
948 995 2313 1372 957 1100 1864 1424 1010 982 914 255 597 12 543
3482 1193 226 1901 3555 936 980 953 3115 1972 1232
4659 1349 2296 657 2480 582 718 1469 1254
4328 1892 2728 210 384 1886 569 1296 2219 1841 656 557 1113
4072 642 1112 1198 736 561 1316 833 2080 1987 582
6292 1974 5111 95 1094 556 998 43 3029 1477 582 4 1054 266 1221
142 796 302 32 1481 430 439 1760 803 1235 1402
3562 420 3435 1980 2753 965 2133 829 846 1450 6563 1048 420 1111 2969 362 352 1854 836
5542 549 730 548 3078 504 1516 1819 2101 1153 234 660 440 1204 1584
6799 899 543 145 2533 1453 5886 247 6235 212 6556
5728 857 667 1178 1006 571 2680 1825 549 1545 525 25 127 762 3473 1696 159
5068 5 775 1677 1885 902 196 592 789 1046 803 1871 474 1635 179
4680 1370 449 366 127 1946 808 1412 571 706 337
3366 1318 164 1764 67 570 575 731 1025 1512 1220
5259 645 2480 1469 1687 216 2811 1570 968
4535 286 1917 315 2606 1893 1233 151 1373 1320 1894
3292 868 1503 1094 2538 1127 3177 1462 2563 1253 711
8069 504 791 651 440 529 1690 6 823 1525 744 1204 1249
8033 513 2069 873 1689 1915 3195 1695 2001 894 1516 740 655
4142 1801 764 975 1615 1365 2729 1240 1309 1376 4011 1383 1173 1079 1031 305 612
6620 831 4297 1926 880 1500 3821 1973 3296 1534 882
8076 1023 2 304 1422 1099 277 1733 1224 944 1917 807 885 1169 1698 767 1030
5752 1663 1029 1161 2156 1486 566 1528 807 22 1147
5408 210 2593 1840 1251 1126 399 755 2367
6334 147 1062 962 769 306 634 676 428 1445 1355 1879 1930
977 990 231 902 1929 1338 1872 715 301 191 1686 592 237
1529 1677 1183 1862 693 1360 798 1957 1212 1794 131 681 999
6410 1252 2319 1749 1077 1215 1400 1718 1211 1682 1397
5795 568 2320 704 990 1041 2204 292 867 438 667
8527 1652 3924 1541 3967 400 3274
3872 1008 679 515 961 274 1677 1860 186 292 1915 826 563
7858 1494 1474 254 495 139 370 1136 600 700 433 1883 1058
7763 1575 1804 848 1987 819 1050 1628 214 308 523 586 2426 812 872
3116 1680 349 1106 1583 1237 1905 1445 1238 1879 321 667 428
4236 950 2132 716 53 1583 134 1211 235 493 2006 1896 1406
5811 612 943 194 1757 1673 1830 705 2110 1924 211 1788 638 602 2030
5789 959 1301 595 683 1324 1107 427 1280 507 684 1646 1021
2634 229 908 1222 1047 1070 914 727 258 512 105 201 591 1581 246
3706 1862 326 1461 409 454 903 356 155 1132 638 1957 717 669 999 1624 62 1964 931
1875 1085 1226 408 2062 574 317 1577 320 1226 2781 36 121 399 728
4963 1441 924 725 2995 685 2705 1765 1533 1514 1672 721 2478
5104 1538 1016 965 1813 1684 923 1854 1977 1005 1182 463 1330 1520 2405
3597 1765 2661 1079 3699 683 2705 791 2224 721 1158
5193 253 1737 1472 21 1649 1133 1945 382 1886 1710
7099 1485 448 265 389 1838 331 1016 1232 871 741 730 299 1260 1496
4302 1388 131 1056 1576 1779 1979 192 2915 1191 2660 636 447
5057 195 1383 1603 684 635 1083 971 1767 1131 507
7435 1820 796 249 432 278 1022 1479 1479 534 1752 750 620
5721 1920 1292 326 171 1906 793 143 1377
4076 623 684 1266 1431 1256 1458 1185 1362 1044 273 1595 44
5072 1103 1014 979 1061 1619 1120 913 478 1119 23
3272 1651 1532 19 2177 732 1585 1936 1111 1269 456
5803 1366 2176 564 275 851 694 249 99 1510 3186 1134 195 46 2272
3443 1225 1464 1170 371 1011 857 1199 879 33 115 1242 1254
3297 1030 6256 458 726 1063 2573 323 1901 1905 4654
4086 1160 1133 506 1247 503 439 1578 714 23 50 1579 647
2420 1302 4630 295 1991 981 194 257 1048 283 199 1060 4827
5573 1494 33 674 433 1883 967 1984 1068 1518 531 1447 355
3509 570 119 1546 737 311 53 1693 287 1473 17 120 360 963 527
910 1568 2935 1504 2481 1259 378 165 1908 842 952 905 704
7433 1355 1484 1743 2805 89 3652 464 1603 912 1303
4769 144 768 568 276 199 991 671 990 292 709
9958 1910 850 194 455 903 2138 1002 2138 1788 186 678 2110 964 914
5957 1482 1745 366 907 64 727 1946 1026 1175 1261 655 337
7318 1683 661 1914 1049 1410 334 1855 414 1188 46 618 272 1347 1130 39 565 471 1162
3050 1807 977 396 2073 467 2981 1179 528 725 3046 185 3172 1522 972 423 2516
996 1782 1303 348 791 811 273 360 330 10 824 1437 1902
4505 1401 2236 1671 113 1117 259 386 2868 818 661 1463 4033
6616 1227 838 1285 1195 91 1698 1026 3191 1463 1523
2792 1751 3450 739 3322 1925 3478 1210 3002
960 1239 4457 1910 4063 145 4599 247 1320
3436 1839 2236 1852 2530 1335 1137 1995 3289 1205 488 741 2184
3802 990 1584 902 1144 1715 1505 668 301 1379 459 836 320 736 759
4081 950 1052 1903 1668 938 1092 1632 99 969 2427 677 53 1583 622
4808 1113 4 231 1021 1638 874 436 538 955 1028 1965 510 630 1123
4948 436 481 1236 523 884 1282 1516 1482 1400 481
3629 854 1052 865 1461 1284 732 1464 1244 1715 886 454 703
2157 549 2374 548 704 287 2955 1710 5988 1960 3993 1249 4849 1153 1113 1542 1287
6852 685 1158 683 2478 791 1849 296 2678 1563 148 1514 1607
906 449 1123 1355 2432 1743 751 1762 1817 810 618
8457 242 798 1241 768 239 900 347 744 1880 257 375 780 289 233
4827 371 567 400 188 1627 3293 1367 3623 1929 302 1049 873 484 1587
1094 708 3046 1441 4679 1522 2237 1179 2673 683 2995 1765 1465
5297 596 456 1497 2615 413 2818 111 897 298 464
4549 229 851 1118 356 168 1084 680 258 1581 565
7890 1113 864 231 721 884 83 1400 1610 1552 2376 1187 245 1965 433 129 55 567 3
1094 463 2179 283 1029 295 415 531 3242 1980 1045 829 321
5333 393 627 1838 1247 871 1204 1821 533 687 299
4785 1318 705 570 246 1546 1040 311 18 656 1025
7114 1651 1563 694 1585 1936 399 997 614 149 1100 1037 1273
1990 817 2062 1311 746 1908 1066 579 294 424 2433
2880 177 2540 840 1687 1585 1019 1015 2438 1243 1355 1530 381
9723 115 2945 1915 2223 224 321 1242 2431 1669 352
6204 1379 1122 715 759 1202 391 1232 601 836 1451
1135 182 4005 828 2097 193 3494 3 1108 20 447
5624 822 1881 1602 1907 1755 3250 1868 32 105 76
2850 1751 1045 712 3322 1925 1462 1580 3774 402 2875 778 3453
3096 661 655 894 62 932 2820 1849 3174 1695 1102 1544 1583
1770 1309 788 1852 2016 1538 1679 1995 1095 714 2184 1520 1243 178 1312 862 3619
7261 863 619 887 1642 1189 1895 1749 1292 781 793
3471 1813 1299 1587 181 988 1152 240 1084 354 880 472 662
5302 1621 2152 801 92 754 105 1668 1660 476 701 585 1023 627 92
4997 1637 294 946 410 1269 857 485 745 1446 695
1022 82 1280 1968 2327 792 516 156 764 1221 927 1699 1633
2954 937 1530 1250 324 1294 816 883 1161
6717 876 2025 302 447 767 1110 1588 1871 1873 2756 576 195 1799 594
898 1306 1637 983 1980 1167 238 1137 539 1728 3385 1511 2788 94 5502 519 1894
5423 1820 1308 453 307 1479 312 690 620 333 1412
4545 1143 1427 500 770 1435 134 381 1678 934 2722
6417 1434 3350 520 2096 187 2935 525 1475
6518 1549 1156 338 563 581 604 1869 654 81 343 1644 103 431 227 136 1214
6867 941 1558 801 348 1827 1114 744 105 1668 2478 1207 940
4961 1449 1034 1840 338 666 2367 501 1718 1192 1329 1150 1081 1126 2 587 478
5457 482 792 498 726 796 424 1679 1065 1425 1341 373 627 1031 107
3062 1761 757 1735 822 1620 1331 154 877 1047 355
3470 369 717 1098 871 1692 1534 226 1463 772 665 101 564 1705 369 1362 2200
7066 527 305 1053 2888 117 3538 1108 3324
3337 1748 964 576 943 248 1484 1899 187 1799 1029
7382 473 2146 1631 1709 1917 1584 266 361 465 952
7322 857 343 130 2777 25 1551 83 867 653 3473 1004 1317
2844 1409 1278 1990 458 1897 610 985 1081 638 604 233 748
6232 1348 1804 118 1195 794 454 1333 417 1872 577 357 1158
2810 466 854 1377 689 477 1625 1025 1483 558 1077 595 259
5688 1228 579 60 554 1265 826 1022 1407 129 1004
2903 1733 24 302 1767 664 1030 1169 1889 748 1110 1588 2006
5679 361 846 1012 2780 1701 381 90 1806 1435 1579 1148 159
5266 480 714 54 66 620 1372 1664 2300 490 2157 1797 1771
2252 807 226 774 2003 638 1462 233 246 1970 2216 23 93
9964 1415 693 228 187 311 203 776 452 1804 62 1473 487
7253 1692 1402 1428 1690 758 665 1362 1944 935 719
867 1889 1805 1732 213 533 2140 187 3017
5729 304 442 807 1980 1139 282 1018 897 770 2003 985 1324 638 40
3802 1791 305 1540 431 1553 430 1927 1036 307 485 906 449 59 591 1393 588 1021 524
9979 771 452 1804 879 1473 153 120 800 285 359 1783 597 984 99 963 137
4728 1843 2144 161 221 1640 2015 1423 1595 495 302 1237 1283 1822 420
5859 1751 305 739 3453 970 3498 914 1495 897 3498 402 745 1890 1391
4427 83 1303 1004 2028 1375 12 173 568 1135 251 839 1428
6459 1030 1938 458 1119 209 3163 1089 1386 1301 3662
3549 1189 695 742 793 1749 951 866 1185 1718 1893 1814 1568
2645 1690 1816 789 1620 527 1323 488 2233 993 651 514 348
3650 451 2125 1109 3071 1001 1861
3835 536 1 298 1647 1524 272 1823 1664 452 432 1028 1876 176 577 1518 1002 445 235
6455 193 571 1647 2819 634 2433 1789 332 1346 1908
5113 44 585 1870 1774 1200 2076 1538 328 1309 2380 1475 115 1666 2198
3788 1327 991 1734 437 1051 662 385 606 1845 493 1261 748 1798 1297 790 562
3883 976 581 1460 1223 522 533 1206 603 204 1268 1303 890
2618 1053 1341 782 1620 1690 1072 527 1100 810 2964
5221 1261 803 787 562 1338 1174 1639 1014 1798 1185
4349 827 3617 685 2224 1079 501 978 2734 1563 1211 721 1849
7858 1968 387 1422 1908 1851 420 1523 2295 746 516 1699 1492
4002 1768 618 1888 881 37 553 1399 1641 291 1000 104 67
3274 355 260 1348 1493 764 454 1887 63 1418 1417 1872 911
5018 1029 949 1436 286 1413 1392 533 344 1678 1738
2588 32 997 1152 415 1679 318 649 302 756 424 1425 1226 1235 633
3018 291 1211 104 32 1290 513 1865 695 240 1040 354 494 472 471
6616 1182 70 1997 1080 1517 730 1083 51 1263 582 597 497 619 528
3329 853 4833 1729 959 26 1953 1195 4812 250 991 1739 136 1231 3
9793 501 2149 1734 3561 327 656 1261 2240
6257 941 1911 1621 129 209 1148 896 1365 754 348 1089 1012 744 92
4657 572 1530 1914 173 1410 763 541 1377 189 1216 96 268 1913 935
3370 1727 1308 834 305 227 263 1121 914 552 554 99 1368 1795 2357
4275 912 2499 464 224 1923 3452 1796 2739 1491 797 1157 666
5524 940 1937 343 904 1082 3188 12 636 1397 3614 22 225 290 907 450 652
7133 524 2003 49 1617 995 2191 816 493
6344 304 2053 664 885 1169 1683 774 1980 770 226 1970 1432
3840 1726 1041 615 1410 1257 1197 1877 629
6454 492 468 211 1802 1017 463 1962 571 1140 413 100 771 614 503
6510 1053 91 1690 1 789 2964 722 618 1762 1946 449 1895
4592 1529 654 1009 678 1414 84 1782 681 348 459 709 273 508 765
5791 1575 2237 308 2242 1068 158 1382 1587 675 872
7509 408 1562 560 1314 36 1167 992 1998 1364 1254
6061 1837 714 879 1848 1304 223 1942 1293 1332 2466 823 2030 345 309
3975 1744 1178 312 1009 1942 922 1294 700 13 203
4952 948 1431 806 493 524 1820 995 129 1408 1635 982 1117
5302 1557 1321 1272 1183 1311 1978 733 2062 53 1105 28 1291 424 924
922 110 1301 1401 3792 386 672 511 4086 710 661
5247 1314 1670 848 1524 1992 245 1628 2285 675 1050
4606 904 265 1329 1349 405 997 1413 627 533 81
655 1534 2627 1615 1865 1623 2085
9417 301 325 1602 1864 1868 2112 738 1881
5183 1304 2089 814 2030 312 2070 1981 276 1942 1243
8283 1986 104 1764 417 570 337 1512 980 1725 1231 1693 97 1281 934 1906 10 75 501
3995 1925 2214 608 4686 1580 2674 78 3231 830 1385 1346 463
8760 438 1637 1860 1747 673 563 292 573 17 764 139 152 1245 143
6353 1650 1499 1240 4256 1043 379 1079 1902 791 3617 978 58 1747 3507
3227 363 2289 737 2097 182 293 193 1617 320 1634 1789 2172 850 2304
5631 650 846 1411 2015 1111 3071 729 321 531 1500 1980 2555
8852 1580 3054 321 3032 78 2628 825 1385 1988 229 1724 46
6234 1844 10561 591 1 1926 4103 663 4297 1534 1295
3836 563 881 390 1901 1656 1761 1076 62
2795 448 652 1198 1 397 933 647 2080 601 51 1987 36 1313 1353
6671 1727 1301 803 305 1451 963 1325 597 1795 887 552 185 1444 1444
7692 1826 1423 470 1472 417 699 1894 429 1811 943 1187 299
5321 1715 679 1464 814 1963 272 715 320 1850 549 908 542 1202 283 736 1451 21 760
4703 578 275 1933 1941 1246 1173 1023 1662 1099 1662 1703 454
7017 1431 759 1181 3392 1095 1605 1951 2760 1173 1670 1478 371
6200 1375 329 779 1428 881 459 1135 383 1818 1060 181 495
5969 177 1175 275 1442 451 2034 734 1687 51 1224 1585 1170
1172 1683 1120 1914 1282 1171 279 516 1271 251 1558 1188 168
4169 1568 1727 1055 309 1482 3035 165 166 702 952 1810 2032
9709 1801 1228 975 4377 109 3057 1404 3391 1365 947 1650 5153
4956 1059 1281 1712 1738 252 262 1900 1803 309 351
5965 1808 1797 864 1075 1594 1360 581 741
4289 112 1510 1185 2802 427 469 507 1744 1256 673
5708 273 1838 1805 1320 1487 787 1734 1550 1440 886 174 1796
6512 1314 669 976 2595 1460 377 1575 482 819 1524 1697 410 675 1987
3204 1306 3473 1125 3760 1574 3806 1576 381 94 3167 261 371 1874 872
5616 828 2304 1789 278 101 1665 320 2636 1176 2118
3965 1366 1518 249 706 695 694 398 1275 453 1578
8642 1149 1807 1983 1474 588 2259 1042 660 1124 174 934 275
3872 1729 3213 799 4833 26 142 132 3601 353 1302
5304 1284 688 1027 747 719 1052 1464 1535 1101 2735
1253 865 1091 1284 1067 624 952 1976 1154
1593 1489 6173 1166 5640 1890 6647 330 3750 276 1530
4777 287 4770 1710 2815 130 1339 762 343 653 667 1178 5282
2718 319 593 584 1184 1758 197 1305 1091 404 721
4268 203 1023 342 31 1174 1084 1297 1092 1846 442 512 775
5588 1703 1125 1258 1634 260 728 1686 50 41 589 1685 948 460 1106
6402 1864 135 568 428 1243 628 1447 1997 1041 2250 1494 1102
1484 1995 320 1062 1157 741 3619 1217 4210 178 781 1060 1973
4537 134 452 1885 2872 887 1212 1749 2181 172 418 742 619
6657 1869 568 946 2033 581 1251 845 1075 1594 711
3311 1284 1086 855 1091 719 1461 454 921 356 237 624 62
1746 242 1986 1189 876 1616 192 781 1185 886 2009 289 807 1814 262
3272 234 1760 1369 1457 1558 541 610 336 142 905
9062 1890 970 330 88 1565 3120 1094 827 659 1503 1253 4320
5048 420 2750 1925 827 1307 1362 362 2354 608 4915 20 526 1647 2659
8894 988 1606 1633 1484 102 1125 1802 2604 1268 368 1554 334
4235 1821 470 730 1204 1069 1797 687 741 1260 402
7976 1712 638 938 714 898 884 309 1599 969 576
1393 1627 1470 882 2646 1929 1222 661 1689 1915 625 1049 1114 894 1875
4371 1405 68 1323 281 1843 3052 1809 1094 577 2173 1084 305 161 390 962 927
5222 1831 797 1033 499 1729 2030 1967 716 607 904 1739 2833 1438 485
9395 65 2240 1800 3131 302 2534 1748 635 576 780 748 2025
6179 1507 1264 1315 814 1481 445 1982 671 922 433 1198 175 448 1628 1115 358
7801 578 1044 1395 3341 1551 700 1733 1353 1812 2227 302 513
3955 1837 1875 1000 2941 814 1848 1106 566 1680 195 1332 1162
3967 536 1026 1201 2915 1598 979 413 2035
8190 1375 1066 1659 535 1433 1417 839 459 1818 968
8574 1652 2196 1929 1408 873 2646 1928 743 224 3181 1915 1910
8079 1437 1446 1010 145 10 17 937 714 1981 840 1250 216 747 1161 13 654
8013 1113 844 718 1282 436 1165 728 83 1400 555
3706 1910 593 145 54 1629 1906 544 919 1087 505 1439 2640
5442 1709 1418 1616 329 866 2009 92 398 1814 1539 1456 235 334 1403
8194 863 1212 1885 51 1610 1319 1189 241 1197 442 742 1642 1081 1493
6893 1443 1565 1570 2898 1171 1662
632 1933 632 1567 3087 1203 2059 1817 607 1703 401 260 2211
159 921 213 543 1359 125 635 930 1145 1526 642 126 506 288 596
1013 1312 3151 1388 1433 1056 1435 1806 1480 310 2587
4895 1532 594 929 1204 435 586 1592 1045
7811 449 1529 86 2087 1355 281 1911 1687 1045 377 518 1934 325 290 55 20
4398 873 1875 1049 2615 661 1516 932 3139 740 62
7124 1581 784 1182 1070 372 510 213 588 1986 745 168 526 1725 880 1162 353 75 484
1928 1177 774 1621 3170 209 2708 801 1365 152 63
3460 778 3498 1890 1717 402 4737 1166 5432
2767 1586 1233 938 1161 872 884 1096 801 309 36 1909 67
5094 652 543 145 4044 1453 555 1439 2341 1898 3873 1091 1404
2137 1816 1573 526 233 202 1530 10 453 1887 424 1418 812 937 1355 141 308
4757 909 499 456 1665 617 392 1634 550 593 1233 437 381 1035 1336 439 1307
6496 1677 1819 1862 1836 654 196 1715 544 715 1144 668 1929 592 35
3859 1910 1049 194 2895 1239 3320 705 2138
2777 1420 904 639 506 462 1206 1436 331 820 265 1329 1009 405 469
3878 1488 817 1504 2393 1863 851 165 716 702 704 387 2261
1958 1613 589 933 490 1540 1097 1927 762 232 615 775 449
2422 1787 2356 1448 1115 1193 1331 63 1477 1354 772 616 1396
7019 1963 1959 1850 1511 1456 1946 836 542
5861 901 499 456 1402 439 1339 131 1178 417 520
1407 1344 209 462 1943 1129 427 69 1929 1529 531 1009 517 1706 464 1931 440
4306 1177 2117 28 1735 424 1868 1389 1558 603 1633
6145 270 543 703 1303 89 2630 804 2499 464 812 1796 983 952 3250
7017 1103 1061 693 478 158 669 1506 611 1119 342
6615 1751 3625 970 2169 1462 2745 778 1495
7466 272 837 617 627 1634 1487 1428 1071 1026 2721 386 2388 635 2 1550 1376 1463 395
4916 1029 1025 1969 889 313 890 508 437 1529 348 1344 659
4974 342 1235 1174 620 1337 182 1904 993 1846 1099
4399 599 446 340 454 483 1510 15 383 1596 1552 146 462
7764 1467 4544 1183 556 153 1030 956 2354 1452 825 314 3928
7161 1460 1019 1662 1456 961 2101 1575 1121 1472 556 1945 7
9479 1560 2299 890 213 125 1500 543 2164
7823 1507 447 1481 1914 877 433 1645 454 68 1013 1687 647
2988 1154 851 1615 3835 1993 2711 1387 1255 236 878 1385 78
1324 1772 1016 492 661 1017 1562 943 1347 631 1484
1533 188 1675 1454 1075 1949 1758 1184 1533 1775 478
2775 1088 2250 1052 268 1944 2801 1036 3552
6555 163 1112 1218 329 1920 777 1517 1122 326 1038 297 983
1503 202 622 348 1057 10 130 1698 1106
4550 1857 2142 1797 1346 892 1204 620 1104 1532 819 1592 320
7026 1994 554 543 153 264 1061 890 1145 126 487
6946 1003 903 1829 1562 215 1055 207 1466 1502 21
9174 484 428 1049 376 894 3139 1544 2617 740 2820
4898 346 737 1613 438 1454 1028 1540 1367 1704 719 1932 1087 906 490
3581 344 843 588 212 852 275 500 525 751 2722 1042 1206 90 329 1435 998 1148 1644
4213 1428 2095 772 719 1362 581 1550 499 437 1768 1754 367 1606 1314
1623 1972 1120 940 3420 183 3026 953 2372 644 980 1082 770
3282 10 780 1744 524 996 547 900 1355 141 1387 1294 113 883 714 747 1530
8178 872 714 898 1161 969 789 716 1092 1632 193 1909 320
8139 1377 1578 558 92 1646 416 1539 1016 1533 2171 1235 1123 1760 270
5695 936 3420 1082 803 805 1937 1972 1229 290 2359
4341 801 1911 754 1558 1827 541 433 1600 1089 338
5559 1996 1510 1719 1486 605 236 1965 914 103 578 1433 1003 1022 116
210 1490 1739 1885 927 1772 1026 1081 853 924 1347 190 1031 631 61
6384 1099 1402 1733 1478 1812 975 664 1917
6901 1403 2696 258 531 968 1552 1069 1140 1717 904
4599 745 410 1637 1338 485 1258 864 2033 1594 1 1869 12
4982 335 985 345 873 1394 1252 495 1852 406 255
678 1618 988 1408 1172 555 1608 816 1431 982 1070 1989 271
6900 1978 1183 1752 1436 411 1836 203 8 374 1521
6903 1833 1213 716 1052 677 2132 1896 507 1903 1568 1632 663
3464 524 1999 1067 1806 1831 996 1408 1962 258 1222
5790 270 701 1048 3293 912 3250 1854 814 1283 3506 1796 91 1340 1505
9108 1193 2219 936 2372 183 4767 644 3115
2758 1650 5102 550 3858 1043 619 1455 637 1898 170 1483 5160
4826 1144 1528 1209 361 1638 726 717 1028 436 1211 1780 444
8608 1467 12337 919 2354 314 1656 1434 5267
6115 1926 2175 591 759 1905 1676 509 2326 323 1160
4379 278 2424 534 348 1689 2532 489 358 108 879 1011 2576 46 529 1444 1524
3816 1074 1415 1856 919 112 1142 1324 526 507 836 679 1301
5014 1985 898 1881 1497 1961 1155 84 1159
2940 920 2101 1575 1842 1688 389 1945 2108
7486 147 1454 1405 1467 874 927 667 769 161 186 306 2000
2773 701 527 1693 284 776 137 120 897 984 1069
6380 1002 1326 705 914 1092 576 1599 1001 1788 1965
7315 650 2133 1980 3832 1854 3494 463 900 684 1813
8024 1947 1881 502 1750 1407 2544 1808 440
5328 1584 968 359 675 388 197 526 1432 355 761
5108 258 410 945 1552 1717 1558 491 2336 1554 801
5934 1712 1501 1356 1701 938 789 872 576 269 154 716 2427 1583 44
5345 778 3498 914 2169 1094 4127 1462 1436 1565 1125 1890 18
7898 689 1767 511 2951 635 408 1131 2314
4901 611 1964 1139 1757 1018 439 1897 372 159 453 1258 1260
3561 1564 3176 169 2592 1032 249 466 1222 1617 288 1511 2789 983 704 1402 409
6200 350 905 565 1135 281 791 245 588 382 676
2282 1801 5425 843 4377 662 1615 1365 3760
7066 1697 535 848 2595 1460 1920 788 581 522 1125
6221 1559 2423 1449 905 1655 132 1334 2432 1776 1410 1609 1571 310 1464
4634 827 58 791 2734 1563 1921 1323 3139 574 14 175 393 1747 1675 1597 940
2549 1103 583 1658 1295 1934 729 693 1061 1619 515 1624 357 1794 349 1815 692
5233 324 180 1391 1043 1492 959 303 355 444 696 1975 425 148 632
9191 1302 1823 1756 3813 1312 2633 1402 544 1806 4397 1066 4719 1217 139 699 194 1060 561
6123 948 1070 1989 1406 995 408 816 1117 1100 312 643 914 629 1037
3605 973 704 1328 5644 1402 3507 1511 4208 749 1980 94 782
5084 1661 1020 1693 672 776 99 1783 864 963 1069
3130 1139 1037 774 1324 763 1081 1897 1458 638 1340
1740 1848 470 1007 956 66 1277 541 314
2738 1955 738 1639 1341 587 1376 327 964 1536 679 1261 565
6649 1813 1145 542 1840 393 160 1543 264 743 1152 1802 114 870 1606 1165 257 1554 656 354 496
5884 1834 1630 523 231 535 424 1613 981 73 389 1663 266 1161 1295 87 680 583 1 340 1613
5557 1379 1413 191 1207 715 1584 668 231
2335 1757 177 1666 491 1479 95 1491 1648 333 2367 1157 2627
1559 813 1998 1364 112 221 1304 36 126 1521 729 1824 229 1316 1584
7636 1278 1421 98 429 782 651 1690 1760 488 328 256 1873 1142 105 1853 182
4189 294 644 159 1466 1352 1347 1466 478
8073 806 2191 49 312 1372 1275 643 2313 982 408 816 129 1203 222
3219 1744 226 118 1083 1790 952 337 1407 357 661 937 547 141 144
7543 1952 1472 1651 2423 522 932 140 749 732 614 1697 1680 1037 222
5693 583 1005 1740 959 483 1310 1419 2276 146 451
3998 1622 1857 1468 2882
4008 1489 2047 1837 1615 180 1428 1879 1149 879 2941 1106 2860
9905 275 1720 451 513 783 1861
7422 1910 11 1629 688 705 2138 1087 2522 1599 877 964 1326
4427 1499 453 459 928 217 507 931 903 1198 24 1829 1184 215 671
5510 130 551 83 618 762 1317 1589 2393 779 2028 173 1110
1188 1538 1993 1684 1338 1870 1740 684 1182
9409 1093 4223 134 2128 19 2310 1075 4309 1341 315 172 2432
8596 572 837 505 1986 216 14 986 956 1848 596 96 501 66 257
4067 1471 1503 1830 14 274 1182 673 679 515 1358
6237 910 517 1706 534 1529 1453 1759 304 128 1209 811 678 1414 513
7532 1612 2215 1254 526 360 379 1437 2194 1304 271 1981 1783 883 145
6268 958 2576 1669 81 108 2131 1121 1101 46 172 1225 2867 1242 921 696 857
5739 361 1017 150 2935 1730 93 768 2780 1701 1613
7154 1219 826 97 263 1415 92 228 300 24 457 1804 657
5824 1019 832 1711 409 39 1112 471 273
2615 1109 669 1585 2760 1039 3041 127 1998 734 2438 331 1287 1530 1424
3302 1485 772 1838 1111 687 1232 1122 703 1971 489
4582 924 1562 492 695 631 770 809 463 100 1516 1987 1181
7297 1023 1166 304 1294 1139 2828 972 439 774 897 1703 2229 1258 988
5083 1913 67 1014 832 39 209 189 242 1711 810 167 1368 1140 617
3328 1723 2565 1128 1233 1024 2425 183 2592 425 1177
5911 1287 581 1553 1632 640 1057 59 280 1430 1850 775 524
1907 1265 606 766 1407 1696 53 1996 1357 129 556 103 1403 942 116 1135 725
5760 304 2690 664 2 1099 1584 837 1662 1018 1166 1703 346
2521 1020 2425 183 78 1082 1424 1371 2346 425 261 1061 911 1057 1525
5413 466 121 765 1483 558 405 1336 831 430 975 1760 339
7703 1285 878 1098 1050 272 2031 1625 77 711 3191 915 2721 1463 967
6355 1582 3683 1381 1622 854 747 1050 1000 1284 2938 1101 262
1424 1524 533 784 1876 45 1145 176 1401 1136 724 1368 605 606 1118 1674 53
8995 1969 514 1678 343 795 949 916 1025 1344 1186 1436 114
4925 1271 5804 697 6256 1301 392 458 2229 780 1938
7213 498 1315 756 107 373 1437 179 821 1815 346
9310 973 249 169 1686 466 510 1308 2152 1938 2580 1875 2155
1982 1067 1507 1831 887 1357 1542 875 499 607 628
1441 328 143 269 1606 1583 1179 1064 746 1104 643 244 418
4020 593 894 1550 139 437 831 1606 1351 901 1336
819 376 1796 926 3552 1944 73 1882 1283 1771 791 1742 830 123 3227
5207 732 1273 997 222 1697 4 1549 2622 1774 622 1869 888 149 678
7925 1868 1238 479 1392 144 1195 199 1819 274 145 105 714 1160 2245
3799 1665 2710 1109 1199 469 3631 1015 3041 127 2079 622 1783
6266 1991 572 1561 2046 1421 1210 1535 981 1636 2342 1516 106 1400 767 470 326 1702 137 1384 1232
5850 568 377 861 2250 1494 1046 671 2204 139 760 438 1354
4240 1149 1169 1836 1390 852 660 361 684 934 1206 1148 1379
4603 1650 2060 954 619 827 379 1455 2822 175 357 1747 3480 1597 1011
6096 27 544 692 273 1595 1764 1777 1649 1266 2131 1050 1560
4299 26 974 1853 2855 55 4093 518 1191 893 377
6756 654 803 1871 857 1635 1013
5570 1547 1511 1773 853 757 355 1620 1152 154 1302
7332 650 420 270 4459 1450 4785 1854 1366 952 3293
5401 1627 1509 724 873 484 2447 873 1114 932 376 894 2615
4824 1582 818 27 2897 1027 1000 1284 244 1777 869 1976 1363 1044 1560
2690 1670 1213 1379 885 385 1915 191 155 164 840 1845 541 787 662
1551 1431 1170 1095 1148 1088 4454 926 268 1713 3166 1691 64 1495 857
4312 604 1515 759 2888 1108 988 1762 2186 527 2435 789 1341 810 91
4052 1147 3303 1123 1583 1691 1434 27 3067 1595 2722
5737 1954 2242 1660 1922 1948 506 1810 2086 842 309 85 266 1523 1546 1482 104 416 364
4839 1388 1873 891 1435 1806 1864 1191 867 688 1576
4049 121 1341 422 505 629 2149 1024 1525 1371 682 1061 2083
5833 70 1217 1809 448 577 299 1084 911
8084 603 1987 252 1062 532 632 1900 150 844 1281
2455 1217 2802 862 1973 981 561 257 697 178 3317 699 4827
7567 1390 1052 422 563 1024 911 425 1543 1057 2083
7981 1065 1978 1779 2006 1995 3196 1205 733 1217 596 862 1157
6163 697 2573 458 745 323 508 1676 1539 433 1541 1089 1537
2802 1034 746 1104 151 605 1303 1694 979 244 553
8189 1191 3939 1779 1505 1217 3139 1062 1978
3215 351 2381 58 3261 1302 3305 1877 2058 1402 1609 628 615 1328 1750 981 4719 1331 972
1119 1831 1906 951 1806 1033 1507 1357 10 258 251
954 1893 491 1575 1512 812 158 1382 2630 151 1634 1803 2229 589 1317 1291 560
5190 1403 123 945 1140 1223 1102 871 1797 1821 237 1260 126 1717 152
3790 201 733 680 914 1581 877
7046 1116 627 1571 219 538 782 626 860
6712 331 681 339 199 1601 978 445 1446 322 769
8470 1361 3160 54 1958 391 1261 1704 1627 1230 3166
5875 1238 1776 1167 188 112 1240 1856 1596 959 1415
5310 1252 1367 134 1087 1006 4309 19 395 1215 795 299 616 392 4392 1651 831
5046 1555 2011 832 62 390 845 1656 60 318 2003 1190 714 1836 252 1124 282
3044 1389 1424 603 325 532 1240 627 185 218 556 481 168
2936 1547 1376 1605 2593 1566 505 1773 1356 1474 471 1164 1859 1310 725 1958 672
3189 1240 3949 662 1031 305 3128 827 1902 685 3699 1765 449 791 501
5605 9 2296 72 174 1298 847 1661 1037 1783 1347 1920 546 1906 33
2885 887 1493 1885 1378 1197 329 1772 1368 943 853 496 1112
4793 936 770 940 803 343 1816 1024 1424 183 1256 805 3188 1371 3020
7727 1182 1789 1337 1062 1904 1451 619 932 201 87 798 51
2797 296 1001 70 245 1514 1254 1405 1783 1809 1539 1058 911 874 305
2497 574 401 317 1822 560 228 408 1465 682 1226
4957 336 303 1484 438 325 800 1643 1488 263 851 489 2201
1228 1629 1670 1002 2522 544 1551 1599 1 885 505
3286 1548 976 1052 4454 1691 751 1944 2426 926 2250 1882 1076
1520 1063 1537 458 1494 941 338 433 382 209 174 801 1012 780 1386
4730 1273 1637 1763 1174 1863 1257 1614 565 387 568 1835 1934
5471 899 1404 544 1942 1439 486 1898 2132 1194 517 1599 209 1700 531
4196 1700 425 1599 1773 407 1840 964 576 1788 573 1172 178
1917 1006 4223 19 3716 1891 4370 259 4909 1470 1021 1341 3287
7441 868 827 659 2538 970 4127 1565 2733 1462 2
116 1431 3838 838 1605 1052 1148 1173 883 1495 2691
2488 1586 1010 898 801 1318 325 1531 438 309 1111 444 593 1975 1133 566 201
4338 374 1311 633 862 1385 943 1297 1490 1590 867 1781 2400
3314 369 2265 226 1647 1625 1661 1026 1050 272 211 758 871
7832 578 228 1023 1584 837 1662 1812 1154 944 1402 664 277
4078 1424 910 643 1864 343 1761 629 1750 982 312
9645 1381 715 854 2735 1027 262 475 1020 1464 248 1963 1912
4816 1967 847 491 1000 1438 393 1633 1261 102 303 1554 1007 277 1942
8704 1777 1158 1359 994 1282 752 1934 184 979 583 693 1014 1506 124 913 1061
5881 1638 819 1884 207 328 1681 1064 151 1034 643 1719 299 605 837 630 498
4181 1776 2822 310 1318 1938 168 1907 600 1875 2192 569 85
4073 1000 2860 879 566 676 1583 1879 3150 1680 1410
7363 1180 1134 267 1478 316 474 1721 1129 1922 856
3415 363 1858 1769 7168 604 2811 759 3324 1053 988 117 4002 111 8722 1138 405 1497 4
4685 1665 6040 451 1506 783 3071 1039 1199 1585 1037 1015 669
2774 1146 893 371 1002 1681 917 1367 3050 1916 5417 1544 360 484 3353
6126 650 2969 1158 1965 1411 258 829 3071 362 3863
6366 1275 419 1891 32 1722 430 1224 2105 1594 169 485 1575 1446 821
1728 717 4 231 1564 436 1018 884 844 728 864
5951 49 574 1567 4028 353 4773 1395 2300 578 1294
4148 1982 1029 877 358 448 180 142 664 397 230 601 998
2398 1969 1110 1071 627 626 139 1571 1032
6436 1580 3142 1671 4101 1988 2561 710 259 1463 3554
7372 1731 732 1556 688 229 415 1378 920 168 617 727 356
5761 693 23 1619 443 1132 412 158 415 913 342 1964 296
5674 243 3116 1595 2373 590 2977 170 1739
2911 1669 1743 227 2376 108 222 1011 1101 99 1728 803 914
1096 1485 1863 155 850 126 739 1399 1330 1016 703 1865 1282 1971 601
8566 1582 3866 1951 917 1147 1745 27 13 1478 2326 1054 1583
3629 1656 1810 279 274 318 1131 1149 1200 1076 282 1983 207 50 756 852 174
3880 1807 3396 1940 351 1179 1247 849 3760 261 1680 1874 5950
2764 1892 2289 210 333 666 399 501 2526 755 2 1214 440 1805 2455 1734 381 253 454 1886 2054
2781 659 3177 1462 341 1642 868 1163 846 1253 4280 1867 5923
3927 1723 810 1020 1233 412 1312 425 1225 1330 1258
6017 639 2573 462 435 1766 898 910 427 1931 2219
6238 1340 1561 1475 1037 1796 1921 1157 761
5757 1458 3518 1384 242 110 250 689 507 195 1719 971 2314 511 918
7274 1619 870 1624 673 681 638 1964 665 1119 412
3673 1432 1422 1708 936 641 1079 1443 1015 516 1208
2338 1541 2416 1604 1609 564 1025 1652 1212 695 195 1510 3188 1928 1839 1170 1367
4785 83 961 1696 1147 779 251 839 383 103 146 1022 725 181 1564
7082 254 1562 674 600 176 145 139 1136 1028 724 1674 1145
6233 1306 2061 749 539 494 3647 1167 2525 170 654 1300 137 82 676 1968 4326 1422 78
6289 1800 3493 117 116 1108 405 1748 2773 1935 1650 596 245 1497 4813 1524 2451
2226 1018 2828 972 1757 1897 1097 774 282 985 1037
3714 1711 462 618 1157 1019 617 122 261 211 11 1962 1653 167 302 809 413
5016 1457 2680 1208 8471 1264 9331
2415 1278 2169 1551 1900 198 1866 256 205 993 105 403 1349
2218 500 975 486 1423 751 1427 381 1307
4431 1209 1445 955 1528 1236 945 436 383
5335 1197 1818 496 960 1880 82 319 81 1716 1872 584 46 1317 266
3288 34 230 77 2087 1953 3048 1681 5054 1916 922 1110 893
7551 1951 1817 1173 3308 1054 3303 1691 582 1123 1745 1495 606
6420 1042 1379 361 734 90 1630 768 159 934 1644
4506 318 1358 1836 505 1042 1169 852 1807 1124 1200
4159 501 1411 327 1144 755 1081 587 973
9019 1515 1464 222 131 584 195 404 399 1855 207 414 922 1347 1069
5741 1655 707 1858 520 796 415 32 769 1573 38 569 1028 1679 1368
6507 548 3110 720 1113 651 234 280 1826 1249 2984 1204 270 1298 1387
5541 1623 2525 1844 5048 1615 981 238 4547 923 851 236 1659
3548 1949 2013 1505 1813 1775 2342
8787 1321 1063 1741 1655 1207 2275 521 1127
4372 1666 1821 804 666 1491 473 991 2627 1130 761 1475 334 1796 1124
5362 1411 979 1509 2554 1111 1965 1233 243 1307 2365 362 412 1726 120
6874 1475 326 428 1595 1200 2831 1283 1769
4734 1038 2245 105 1243 503 1426 274 128 506 1488 698 1133
2983 1663 653 989 1295 87 1983 665 2156 1528 105
3430 372 1110 297 167 895 353 326 1176 75 411 143 249
681 58 1305 1642 4788 230 4994 1127 846 1867 873
6146 1566 1962 1078 1859 1608 845 473 2800 1457 2630 1474 791 1264 630 266 521
2774 393 1225 988 257 1290 716 1971 123 354 981
6041 856 5640 897 5432 1890 253 110 5277 237 4273 180 173 1489 2971 402 1607 1671 3826
6107 749 238 494 1225 1137 2525 1569 499 1728 3062 1238 1300 1856 857 1074 188
9796 88 1879 1675 138 308 3294 586 3628 1513 3014
5518 664 1698 807 1683 767 1889 1970 511 1830 1182 1588 784
5725 1134 1367 1510 2134 1928 1875 1225 2243 33 804 696 371
6249 888 1662 1443 1199 841 279 1914 1200 516 1893 1570 337 541 1275 66 80
3432 1092 178 1788 96 407 993 1380 1342 537 441 268 567 1316 611
4381 1095 883 1951 958 838 1670 1495 2918 1147 3308
5822 342 379 917 620 1846 441 859 1084
7923 1954 2358 1648 83 1221 1117 85 471 1482 837 1946 1319 1412 368 706 1261
6896 62 773 1789 1055 1998 2540 101 444 850 2118 1705 1814
4360 911 2117 28 1770 1389 139 1621 814 152 3057 896 774
8107 857 5282 653 1006 1710 705 1362 4534 1754 1018 571 1070
4104 1807 5123 708 528 1441 3862 1125 1247 725 2673 547 931 1576 204 1874 4385 330 6248
1233 1778 1354 1107 1134 1992 1123 267 428 1922 140
9002 1431 2509 1701 3732 838 3392 1190 903 1555 927 1478 365
5134 1581 284 1997 1550 213 87 1083 1789 201 408 895 1070 798 70
3943 1452 2793 1348 3508 1878 1762 153 4132 919 556
2078 241 85 1287 2851 1454 195 1553 596 1949 2042 1505 847 925 1533
4016 243 3725 170 4 112 504 692 1362 1595 267 846 2802 1256 648
9359 205 1187 261 1052 1641 1509 416 2232 271 307
4991 1400 1517 470 2885 835 299 1811 502 1552 1461 728 245 1939 368
5230 841 168 1683 1555 251 750 1855 1378 440 961 707 46
8013 887 241 1610 1356 242 1271 742 1895 239 44 866 876 781 695
5265 1181 903 1555 3148 1076 714 1836 847 150 2111 1730 946 1701 932
4035 1056 867 688 2660 1779 2 1806 2663 1065 3939 1217 297
4114 1449 1560 1334 3174 1536 977 755 1329 587 1643
4519 1787 1673 1448 2933 953 2219 644 226 554 799 907 1331 1901 2719
2156 1091 517 71 1208 1943 1765 1898 533 1700 2926 36 133
2079 26 1172 1537 2022 1451 789 1325 2374 799 4812 250 1985
6103 351 288 1233 2498 539 1219 1210 3732 637 1034 1793 920 559 402
8329 887 442 1610 574 1081 329 496 880 1145 1818 239 501 1880 1519
5601 1481 1540 1499 247 877 175 448 1313 217 1121 1003 24 642 1407 833 1 647 736
5333 33 1446 1242 1258 696 879
2922 786 2076 1159 2831 1684 2268 1283 830 1870 1009 1475 81
8059 1919 1078 1480 1365 1519 2426 880 2915 1598 87 413 633 111 172
7857 736 391 836 283 21 931 1232 1013
2305 1567 520 49 3651 995 222 889 2059 1372 1268 1817 1327 255 138
5400 651 1584 1153 270 1298 3280 6 761 660 1249 113 1496
4387 1779 2605 315 2394 1893 392 1335 1916 1995 1212 714 488 1062 733
1471 140 727 1842 1091 204 987 788 603 1303 281
9270 1827 1577 754 940 1668 26 565 1562 1156 2275 1321 590 521 171
8203 238 7888 1457 441 1141 8471 1279 3140
6033 1144 1445 1476 868 955 361 1236 431 1780 1450
8786 1751 884 712 3002 1925 2129 1462 47 1233 613 559 1924 1196 3732
3956 493 146 677 235 30 955 1896 556 1212 677 1213 178
5933 1589 463 1211 677 30 644 1213 2184 173 1451
8628 529 1440 1833 1038 1589 351 1211 178 1896 1217 1212 2184
4500 273 1569 1303 79 253 2149 1805 1938 1126 440
6001 1252 1829 1075 795 299 2140 1327 1806 1845 774 670 1400 7 613 1682 1050
2806 301 1966 1496 5943 1602 5167 200 192
6867 1191 297 1806 3460 1065 3139 1062 596 981 139 862 4210 1060 2802
8143 116 1444 1672 678 72 1407 163 672 1920 638 927 329
2770 106 1422 133 660 1632 437 97 519 228 431 1013 826
3234 321 496 1285 2302 1724 2959 62 328 1625 3066 1998 541 1346 696
5031 1648 1768 82 1753 156 2410 1175 1117 746 927 85 225
8714 203 471 208 1301 1707 512 229 526 1378 339 512 1574 680 1047
3912 1069 1102 1821 433 1543 787 1717 1145
3091 1891 4102 19 792 1112 2105 1446 1953
4908 1510 481 46 394 1170 2243 1011 2867 696 1464
8030 574 1714 1577 536 1597 1968 1455 1642 682 2781
1325 91 1378 711 838 1285 1199
4731 60 952 1265 828 766 579
8437 121 870 422 2142 457 2077 265 606 555 366
5066 1073 3166 54 105 200 2033 206 1494 480 2502
4428 1438 1806 250 4141 1739 2941 799 3 138 1236 277 1582 246 2002
7277 613 361 1670 1210 1814 923 1379 1146 334 958 1202 1013 736 601 21 234
2095 1925 2979 1158 243 1307 2957 351 2719 1210 613 1257 1822 1726 1364 1196 2498
6320 1374 1384 1847 99 377 1678 418 422 289 899 1983 428 1498 1085 50 158
4149 939 1123 1533 30 796 633 649 1402 1425 321 1760 951 300 1614
5310 1144 945 76 2289 1535 667 1342 483 1476 1559 1209 431 429 618 718 523 436 437 1516 612
4928 161 1640 676 1905 1445 325 777 1283 495 107 1680 185 1394 1419 335 689
4354 494 2799 170 1245 1167 1300 112 1457 1074 1776
2004 713 4457 162 2447 1910 155 194 982 1766 763 903 3320
4447 1650 388 1365 5829 827 4256 662 1309 1079 3949
744 239 615 723 768 1880 737
8495 735 2431 1669 580 224 996 1011 921 1199 1258 33 291 696 1254
2212 177 2237 461 686 1864 1452 734 1355 861 628 1530 2138 1447 2168 1737 937
3188 119 3873 447 1091 1861 972 1930 3141 1274 4627 184 424
3028 1860 1318 1368 1383 1899 1466 17 599 826 143 1674 1620
6822 578 2273 1933 1158 837 1173 1567 949
4513 1388 114 636 2344 1559 2963 557 1371 192 2365 553 1309
8602 407 106 1700 1146 537 418 268 874 1824 1039
3859 720 4849 1960 5131 280 1284 1153 2984 166 2704
5379 747 324 1294 818 13 787 883 216
4839 61 1181 1653 2154 509 1662 1978 1933 1752 526 219 775 323 567 1321 134
4152 1215 1829 1075 1367 134 2832 1749 412 670 2319
7798 868 4320 659 711 1127 4280 1576 145 1867 1587 330 5902
8080 1750 1295 1612 1593 1010 526 1304 1206 135 903
8288 341 1556 432 367 1612 1546 135 277 360 1153
1539 692 1458 623 852 1185 648 427 1435 1282 45 846 673
5872 351 2592 1233 1822 808 1197 1726 1935 1877 2144
2188 972 1260 1018 988 1703 1397 159 1017 1352 1557 860 1634 460 870
2115 376 4861 1568 3780 1504 1764 1771 1847 1482 3 702 378
484 457 2121 265 620 1618 1148 1403 857 871 402 1069 126 687 1496
2633 1734 127 800 2240 987 565 327 655 787 748 1639 1263 790 803
6493 344 898 222 1332 500 673 486 577 414 725
8483 798 582 619 904 597 645 1310 93
9341 1657 9426 473 536 546 643 1457 756 1141 9331 1164 630
2728 131 783 1825 980 1228 828 60 191 766 826 1022 606 1696 1394
3438 692 1431 623 722 1777 79 1359 1178 1044 2131
5584 590 3697 170 1542 1742 273 48 2049 1648 520 1300 1995
5366 102 1754 870 368 138 2322 277 1108 1802 1746
5542 694 456 19 672 1936 583 745 857 1637 998 1446 1408
611 324 750 1391 794 1975 897
4521 53 10276 1030 5804 1301 2393 410 4577
6453 379 1331 1392 1265 817 1183 1557 2049 1780 793 1311 1986
5657 1527 1920 1442 309 1863 1477 1090 1637 1763 1919
4696 1244 4627 184 2031 1849 933 510 3168 1930 2855 1544 50
3179 14 980 1966 1431 1722 2373 1 108 1112 419 1891 433
4760 1501 932 14 1533 1891 1478 352 1418
8995 1314 2259 1697 93 1992 549 1549 2162 338 1320
6250 1551 846 98 2143 1142 2169 993 1421
7627 238 562 236 213 1457 1675 1208 3140 84 2442 1881 1039 1474 952
9144 45 257 1368 827 606 292 56 878
2269 824 934 1906 683 75 790 143 698
6663 1533 715 623 1185 1359 1257 427 304 1539 1279 1103 752 1934 609 1256 45
6140 1159 1769 952 3506 428 1402 1684 1058 1854 700 1200 830 1340 72
8298 854 688 1027 2938 865 1086 855 1067 1976 1008 1050 244 719 732
4373 1227 1199 321 837 1625 586 1220 2302 711 1195 91 277 1026 878
4427 1396 229 614 760 100 174 35 654 1937 248 610 54
3322 241 75 640 1692 1021 581 1184 2851 1553 1922
5414 347 829 375 1584 377 779 358 1315 584 1280 289 139
4251 563 2829 1381 1702 475 1571 1616 300 364 603
4562 797 513 1865 794 1971 413 1165 716 354 211
5776 1893 3585 1803 1815 1068 560 553 1802 157 969
3989 275 2258 1496 1238 51 4031 332 4456
2613 1828 1458 1442 1980 396 16 467 2323 1572 589 1763 1949 1746 2055
3907 1744 970 937 113 815 700 1250 818 747 816 13 2
3556 186 2911 395 512 1947 2028 1859 456 1407 2173 197 199
5991 157 350 553 797 1841 1500 646 2219 517 984 557 305
8038 374 1627 203 860 1097 1490 342 668 1590 877 859 1092
4066 280 2584 1153 1387 9 302 1672 827 1204 3280 1080 847 1783 1204 113 109
6377 220 1339 11 241 540 697 125 213 1888 170 155 135 1399 964 1526 1300
4759 1137 137 170 3281 48 218 1267 1995 82 2486
2557 1271 2393 1030 392 410 1538 1326 428 209 159 780 3662 152 2626
4284 1066 3305 1877 3119 981 1823 699 4630 295 1719
9553 1460 466 1214 79 273 1017 446 1819 253 223 1472 526 1206 281 1842 1334 788 890
1175 1750 1424 1254 1206 1010 271 406 837 1981 666 823 2089 814 223 345 2423
1996 319 883 1758 1015 858 1091 122 403
4747 1137 2061 749 1637 849 3473 1574 1377 1851 89 94 3055 1422 4038
3745 1925 2097 1158 2365 1233 2957 869 1362 362 4167
7331 466 3054 1562 1612 1032 2152 430 48 1907 262 1875 427 1999 1312
6250 44 3978 786 2380 1538 2984 741 788 1852 692
5829 1078 725 1958 1103 1773 1264 1620 635 1263 93 619 798 597 656
4051 817 1978 1272 1986 579 1864 1884 1133 1780 27 733 746
4490 1756 1609 1806 1309 981 2633 891 3151 1564 1673 169 1973 310 113
5480 601 1175 833 1353 1558 1801 1987 546 142 281
8265 848 669 819 1670 1992 701 1277 2259 1697 2074
1757 582 1870 1507 1935 434 53 1345 1024 1469 33 877 814 1982 1430
5513 1521 1366 1924 19 1380 2284 992 1584 537 248 1824 520 1172 611
5804 496 1132 1716 51 1145 266 492 1238 122 315 211 209
5282 133 416 1586 1776 1909 19 1764 1517 1975 1068 1096 325 656 164 311 635 731 705
3844 301 2340 1868 929 479 2389 332 715 1895 456
8540 262 501 286 733 1839 2185 315 421 658 1894 1335 2304 1607 1503
6282 1363 174 219 3068 1676 2195 323 1047 74 120 1251 134 1827 341 1156 1063 1741 169 1207 590
2945 1787 2094 241 1825 554 1363 640 1139 1430 1749
7087 70 76 1563 321 574 3111 978 3139 577 1345 874 281 1843 233 1640 844
207 477 1004 1569 717 1465 1442 1856 285 959 526 595 1817 679 1107
6357 834 597 1451 2153 1795 605 1503 1203 1195 2374 250 1620
5763 410 3512 53 1985 28 2496 1301 428 152 1706
3361 299 1190 174 416 1215 1806 1734 3232 787 991 1845 2469
2345 983 5644 1402 3114 1066 1750 94 1505 1331 7695
737 1732 1086 1420 1049 820 1349 904 1009 533 2080
4338 1128 1258 487 152 412 930 1390 607 422 899 425 184
9225 628 6862 1328 7695 1066 972 1576 1236 1867 1965 94 1631
7052 879 1162 814 2466 1680 2724 345 1963 335 48
5918 1348 1029 237 3153 580 2618 118 2006 8 1598 764 417
7205 1449 120 1192 3174 1655 1327 1536 539 482 261 977 2432 1679 968
3412 1839 2441 315 495 1320 2304 714 1137 1205 1916
6210 1025 831 430 666 1760 798
3658 1083 1062 1904 638 201 2047 917 182 1846 1247 512 104
3677 592 1410 668 1872 790 1174 1798 311 1639 721 191 207
4705 293 2175 1991 2813 110 3525 468 3631 1636 1953
4441 952 1505 428 1471 1283 72 1130 1561 1796 739 1475 584
6338 1093 3287 259 1338 1006 315 1490 2672 172 1707 1417 4007
3307 76 856 1426 2997 1714 1586 379 485 429 2417 1236 483
7171 1352 2044 1466 332 460 310 1745 638 38 2017
4235 1029 1186 916 659 1436 1395 462 1116 910 209 1529 1398
7036 1469 141 505 1401 1315 1024 96 950 1982 233 52 1625 1369 1043 142 390
5142 608 206 78 865 825 463 1724 2841 1647 1944 1220 696 634 101 1998 1690 785 1908
6972 1758 104 404 1383 1855 1051 707 1130 618 444 1151 1069
5999 1183 3508 1878 1484 1452 114 355 1049 237 339 794 1493 764 1804 1333 1029
3335 645 2296 582 2626 434 1890
5304 1973 1145 1534 1429 633 2123 1615 1138 1385 1804
1577 18 498 67 1191 282 1547 503 1174 1755 813
4956 1258 1557 994 1347 159 170 460 247 1466 739 1343 2044
5777 269 2222 328 1246 1884 395 579 116 1356 1373 609 1851
4138 1787 209 1654 2216 241 770 63 845 907 772 1921 888 1902 623
4415 703 1484 464 1578 722 2432 1743 302 449 531 86 1029 893 281
7279 1353 1373 1908 586 609 1049 1712 949 1630 1167 269 449 969 1701
7838 1067 10 1033 1542 258 2009 607 1284 491 635
8372 1467 8351 1736 11917 1714 5688 293 9110 1421 979
3400 623 449 1777 863 1103 994 1282 1257 1266 1178
3762 223 212 5 1239 1677 618 498 133 179 858 669 798 1794 251
6804 1073 3160 188 1988 1704 81 1454 1109
7053 1178 4534 772 1944 101 2406 1710 1610 758 2200 1754 1416 935 581
276 61 886 1978 545 411 1287 219 1286 1741 724 1321 174
9767 813 1254 528 756 367 1229 560 1118 992 112 1521 2161 406 313
7720 975 3760 843 947 1650 1572 662 2729 1240 5829
1724 1912 1542 1398 576 398 290 851 1518 695 2176 564 1162
7728 371 4410 1110 3050 724 3623 484 750
3806 1674 180 1028 605 1245 1383 606 824 1280 827 1899 574 248 782 56 191
4549 1345 1043 96 1767 234 103 142 292 867 1457
2404 655 449 1412 1078 366 724 64 574
2819 343 336 629 670 1024 2346 1082 3020 1057 682
3905 995 1275 1203 1268 643 957 255 2230
5096 523 1417 409 195 346 753 1767 958 391 668
2103 1234 1384 1847 1260 383 1067 279 919 50 93
4708 1659 1441 881 1066 173 1853 839 329 779 12
3108 1801 3319 47 3066 1383 3002 662 4011
3562 1646 1140 939 1578 558 1964 765 689 595 941
2670 1707 1304 1556 785 229 1135 1118 920 1222 339 245 60
3318 1051 885 990 1413 1670 469 191 114 715 459 1232 1146 736 1122
8883 602 1834 1788 113 1924 1653 1172 1342 1316 2284
843 1582 944 1478 51 563 81 390 2012 1289 1702 475 1738 1027 1622 1101 715
1596 308 2316 812 1587 1068 2630 151 3057
4708 47 5886 1376 3002 40 1757 662 1173 551 1000 305 3730
3633 468 1016 1458 1487 1636 1709 1040 1232 1702 2837 1131 242 195 231
2252 633 1331 1350 1804 1615 559 923 78 1097 943 1993 2014 1781 1411
5891 1960 6954 365 2877 1710 1608 111 9324 1477 509 622 7316 1480 1992
1950 923 1255 1993 2260 236 4065 84 2139 1961 187
4860 1056 1873 891 1433 310 2049 688 131 636 2479 1247 114 1559 127
7246 911 1558 1177 139 1621 1754 603 1276 1077 1424 627 1517
6282 1330 607 422 1172 425 571 1061 1052
4149 324 251 980 1043 1975 209 1270 794
4878 379 513 1476 923 1272 1265 429 850 1780 1643
5298 307 1475 87 787 59 1112 775 588 1786 1002
6371 1237 1419 947 1252 335 1535 495 967
2483 1114 2300 578 767 1551 3625 353 1345 878 3341
8034 594 371 1720 224 1286 229 610 240 614 266
6747 1663 2455 599 240 1596 1275 22 946 805 3614 450 424
9523 107 1861 1366 576 1912 1017 44 1424 1852 113 398 965 1757 1971
6969 1888 110 793 1641 155 1414 1299 964 291 893 1865 351 1122 1330
7434 1040 767 718 481 884 555 1516 2574 470 506 728 1610 1187 1517
3762 110 2575 1671 4000 818 3792 710 2236
9520 1756 4849 973 409 1564 1016 983 3507 981 544 1066 1609 1328 3114
5828 1618 2650 258 166 945 2696 1260 857 1069 123
3731 109 1815 843 3391 212 3725
6605 547 3 29 2709 394 229 1514 1955 147 520 1084 1783 874 68 962 1467
5089 225 891 625 727 1429 0 1784 647 378 282
5870 1295 2173 197 953 1947 108 966 2544 1594 23 1808 120
3068 948 1172 524 503 816 1635 951 1962 1618 711 258 1002
6188 426 967 763 1278 1990 1604 1579 1050 233 568
8665 802 763 1914 1960 707 334 1913 1529 39 1160
5473 1158 979 531 1542 829 2015 615 752 1509 1790 1111 258
5980 1742 1511 1648 2149 123 1207 1370 1078 64 295 1946 1295 1175 368 655 571
3123 795 1392 1436 780 820 627 405 505 533 1020
6081 1759 430 1009 513 811 84 1782 641
3849 771 693 228 126 24 517 1804 337 1013 92
1472 1866 1470 370 3403 1828 1204 1442 1064 443 2469 1918 1957 40 1384
3820 1427 2198 259 1067 1490 334 1341 4007 171 1486 190 1374
4276 1584 1097 355 678 526 82 1887 1404 900 812 794 1417
6263 1979 1056 1740 86 1592 1337 998 2276 1626 1400 146 790
7246 1732 2882 1329 1049 639 1908 904 904
4360 1358 979 293 600 1991 3478 1561 2198 1040 1210 1714 1747
3956 1306 4038 1137 78 1968 3688 1851 1816 792 1908
6456 495 2355 367 1118 777 1595 1822 1046
2598 1100 910 12 3575 643 1010 343 2671
4014 796 1226 756 1341 373 226 300 374 1235 321
4260 1342 2997 379 1231 1557 1316 1736 2107 1714 14
4439 1611 2103 259 2185 171 1824 1417 2198
3362 272 1857 1692 368 915 1071 1550 572 772 1690 935 2095
8930 1406 0 378 1353 1505 33 1775 1329
7252 554 100 1322 1749 640 500 59 1580 2 876 1021 1850
4434 838 759 1095 3838 1052 1170 1181 2509
1263 1133 1422 1435 1942 381 274 641 1428
3593 244 589 1694 1110 605 83 1659 110 881 1417 103 1282 942 1003 1818 254
6337 93 1812 314 185 752 3350 525 247 956 5267 187 1284
4666 1432 1942 751 134 381 499 90 2465 768 1579 934 998
4730 1029 114 795 286 1344 1395 462 620 1413 780 405 936 904 331
6451 709 1902 360 141 1010 2194 10 996 883 1446
1288 1967 819 875 485 1739 1899 1102 393 277 1339 1231 1806
5027 145 1249 899 2341 544 434 885 2640 1091 486
4848 847 886 1487 1268 174 1458
6648 725 4679 1179 3862 683 924 547 5796 1514 1867
2336 1527 1583 370 1492 1828 1377 1293 1980 1273 309 1416 1064 1763 732
6436 1133 1015 888 1565 516 1057 1171 1199
7852 834 1444 958 1524 108 970 552 1245 1643 1434 1451 1248 489 127
5613 161 377 306 229 676 1238 1237 325 667 1355
3512 1224 1953 1112 821 19 2027 745 695 1269 1408 485 352
2746 861 1997 1243 2168 1494 557 1984 411 700 355 1737 1381
423 1193 2933 616 2141 907 1115
3438 1559 1992 977 905 1334 120 1192 1560 1840 2556 755 1034
6134 420 356 650 6563 384 3888 270 1513 1048 4785 3 1863 1769 2024
8633 834 963 1484 689 1537 791 1643 427 263 1984 1325 2153 1195 789 1444 1248
7471 1183 2793 919 825 359 2292 314 1010 355 2161 1348 114
7883 652 5886 109 1257 212 507 899 555 550 4429 1898 1270
3692 188 2671 1361 1109 933 1028 1704 1968 1791 1671 925 1075 1540 876 1184 195 1553 249
3800 954 637 1577 2093 1226 1642 1043 2822 1483 2516 1597 627
1033 92 1333 364 743 1963 47 886 235 1850 166 908 1946 334 975
3197 1208 441 1141 2680 1279 1675 1474 2653 1164 2630 1264 756
2043 468 3201 110 2395 1131 3518 1384 1487
4254 487 538 412 1472 2000 1463 264 365
6567 976 1920 788 1223 920 1019 1662 1412 1303 466 848 377 1575 0 1472 396
4583 1862 1718 454 1782 681 409 1715 975
4055 1751 482 659 2563 970 1436 914 2745 1094 2 559 2188 1210 47 1642 3005 1127 341
6606 1117 3554 91 86 711 1523 1026 967 1988 363 386 130 710 4033 915 395
8673 854 1535 719 1244 1101 248 1715 1601 1963 663 836 814
7592 1876 1595 519 792 477 955 1569 1324 1728 1842 1324 1442
633 294 1168 994 478 435 102 1352 739 1626 997 1343 332 1745 756 146 477
9255 1358 8351 956 12337 293 5550 153 6752 919 4544
3783 1622 124 999 2882 235 954 562 5541 1587 1446 104 572 472 394
1275 645 1254 582 3770 657 1687 1345 141 216 385 505 2622 1315 33
3990 1093 1021 1 208 259 1841 1891 284 1501 6982
7397 1008 1503 1830 1874 274 1015 506 902 1970 2696
8171 1460 396 1662 1002 920 556 446 796 253 710 1303 526 686 21 1945 413
5442 311 860 701 17 776 153 771 487 120 722
6301 1547 3202 1078 471 154 40 1457 2653 1279 952 1164 791 1881 1854
1461 786 115 1159 326 428 1834 1666 2482 1200 81 1130 1037 1340 584 1157 334
3506 1236 1559 1209 868 1780 183 1392 923 429 1552
2047 1974 919 1960 8876 469 6030 1508 114 1386 509 622 1786 648 582 546 7460 4 4589 465 778
7844 1181 365 1555 3208 1582 514 1951 3601 1123 2326 390 2336 838 371 1381 51
2948 1491 1489 1600 557 534 283 690 1479 750 312 333 294 991 95
5835 365 966 1386 1992 622 2071 1201 1365 1919 1532 1519 1026
3242 1502 608 217 1100 1198 1540 877 445 922 1914 1687 500
727 1954 1287 1568 1094 1259 3 1055 104 842 3035 1771 497 706 1745 1175 837 64 330
7104 954 5160 1577 1008 1455 2516 1898 1571 124 2739
7877 1451 689 1537 2358 263 2161 368 434 325 1130 1086 438
8676 632 1635 2000 832 265 104 687 448 126 91 1122 1863 1016 772
3501 1528 58 665 566 329 496 22 534
5014 847 787 1440 1268 174 293 273 1383 1952 2824 392 2516 1842 242
6633 1785 2709 1504 3226 1863 1729 905 817
5727 856 6173 1166 2971 180 6608 276 5649 1000 2047 1879 2226
5426 943 1739 1885 1208 172 2861 1341 2672 190 1160 1417 334
3841 804 797 1479 1489 1923 671 1600 1674 1157 473 991 1648
7112 324 502 1556 1091 281 286 245 751 980 959 303 630
3556 1660 1684 442 2326 1948 1440 271 390
8456 861 1102 1447 557 1041 1046 139 91 674 1474 700 33
4243 1095 2691 1173 2918 1147 606 1713 3779 1052 857 1691 678
2426 1216 5943 200 1135 1292 1238 301 655 332 1641
6785 1108 4 596 1607 726 2615 111 5620 1138 4813
5028 344 687 418 1494 1983 485 1234 1085 588 1646
3942 1003 453 1198 247 642 1857 459 1768 499 535 561 156
4340 663 3821 160 2361 1973 375 1926 2973 509 26
3349 1470 6982 1891 3664 1 404 352 2885 1276 932
6201 1481 608 57 768 1687 139 389 1069 217 114 931 21 215 546 207 990
5728 1795 1608 1325 1203 250 1217
9080 1488 3226 1259 1764 905 2393 702 2481
3195 1654 1073 378 1538 1429 33 241 2086 1949 180 1184 847 1775 339 1155 1813
8495 356 472 624 503 1777 815 1976 1012 1103 124 158 853 913 611 1964 101
6292 1315 1935 434 2277 877 1264 922 447 68 1018
1362 1665 4969 469 7438 546 8050 1477 114
8672 1158 2554 1411 1790 615 670 1726 3236
458 695 3186 1134 3188 46 1274 1170 2134 1225 481
6188 973 2789 983 4208 749 2788 214 2100 1617 1462 519 814
239 1764 1430 570 359 656 1220 824 980
5604 262 3130 88 3340 400 2254 308 82 1168 3014 1607 360
3988 1441 1867 547 1928 683 1672 296 1308 721 1607 1405 1955 1084 1254
4243 222 1019 1753 1325 358 41 584 856 1151 1464
125 1535 2960 1040 106 718 1482 1236 612 1400 2574
3014 1605 382 1958 1692 163 627 1997 24 927 1122 597 133 798 730 297 703
7916 784 1002 1601 169 445 83 1593 341 176 1280 1883 253 1984 457 700 531 419 844
6529 365 2208 1201 2426 1480 1026 111 1651
4806 1538 2325 684 2405 741 1243 463 454 257 2097 283 611 178 2426
4660 1750 528 432 1385 1364 2161 1924 1759 406 2214 992 729 1316 1366
3365 708 972 185 2140 551 1941 725 2237 305 432 1765 3385
8644 1055 1546 1851 223 85 1976 205 830 1641 1710 416 129 792 2295 1699 391
4935 1935 124 596 2781 298 90 1138 2451 45 1345 784 272 1028 533
7766 529 542 97 1066 6 886 660 744 113 94
1311 125 1159 890 642 155 30 288 1670 1299 1300
1154 1866 1341 370 2673 1442 1583 1863 2068 1273 1920
8487 1972 959 87 519 1161 105 1786 1261 290 41 497 1294 1486 58 665 807 329 118
2861 916 348 1344 1398 910 531 508 1069 1009 1453 811 654
4587 1015 1424 734 381 322 1631 331 2672 1243 2138 1737 778
6286 481 935 1900 319 309 1120 566 1647 218 239 1096 438
7414 1857 700 892 594 929 819 294 583 159 709 435 837
6699 939 2171 1235 30 1539 871 1282 715 1934 2412 300 214
6504 831 1295 663 882 1973 3321 821 2627 1844 780 1350 1429 1615 118 1623 2128
9203 1561 2028 76 1670 1040 981 1516 2960 1236 667
5768 1192 977 1334 539 482 2221 987 679 587 1354 1871 252 1955 1442
7410 26 511 1484 2358 1195 2022 1451 791 368 2980
5237 786 328 1309 2984 1870 881 741 1679 1520 2325 1005 1993 684 1016
5537 939 1016 1533 871 427 1681 1646 1479 1282 1279
9911 933 1367 1791 1948 1454 876 906 1097 775 431
4488 672 3967 1604 3868 1839 1223 1134 2416 1652 267 262 3216 400 415
5322 549 2950 287 3593 720 1287 1819 189 130 2044
5606 542 1016 1223 787 1821 680 1717 720 988 264 1554 1470
9738 1681 3172 1110 360 484 2388 184 2310 932 2617 1849 508 740 1583 1274 50
4175 571 1420 1825 1399 437 1159 1754 1251 439 1065 653 525
2206 570 268 701 737 311 857 731 1040
5424 1773 1409 1078 1376 1474 3202 1047 1511 154 83
9768 590 3436 1742 140 1882 2383 1691 3913 1088 976
4231 1697 876 1277 2162 1037 2622 1869 238 338 136 753 1156
8297 1634 1135 1428 572 915 1376 593 897 935 499 1606 747 1035 139
6355 1278 846 1395 3625 98 2090 65 1723 353 380 132 1077 1142 1900 878 700 302 769 198 843
6710 1187 1461 728 2376 1939 772 567 990
2955 1287 1922 1791 2935 1454 249 1021 1632 775 430 1184 596
5236 1717 473 1543 1470 968 801 491 304 988 656 1633 1843 870 334 1102 1007
3003 1181 927 1190 3148 1478 3208 390 1431 1076 2011
5048 324 110 1731 662 1118 688 1378 785 245 920 1492 1091
3255 1426 1316 379 709 1736 1857 817 1321 1272 2049 53 2751
7798 1987 997 1937 854 1313 1801 610 641 867 541 142 447
3652 1388 127 557 2157 1247 2963 977 2423 1449 1992 310 1737 1840 90
4390 1792 4228 921 2299 183 1786 1994 93 543 289
2459 1714 39 76 2223 1421 2198 1535 2028 1040 2046
3930 1308 1612 430 2266 32 88 1858 1204 1999 260
849 791 1211 296 2279 70 2434 721 148 978 1921 1323 321
4863 1756 2089 1312 1673 973 3176 169 1433 1402 1016
4308 868 3120 970 1125 1094 2733 1890 5589
3611 1956 780 95 1680 1605 1717 1164 1962 1078 505 1959 1077 1608 1686
4131 1114 4028 578 90 1933 1675 1246 949 49 710 1203 520 889 3087
3690 1482 1094 842 1727 1259 3780 702 2935
7234 1167 499 1728 1809 1856 2478 1465 1324 1324 717
1846 657 968 888 2898 216 2392 1171 337 66 2555
5419 1977 583 1969 207 1832 1003 1071 219 1116 1032 538 544
6998 1293 589 1746 2854 1763 1948 1614 2385 271 318
2621 1858 813 1152 38 1907 852 569 1204 1999 819
5019 1306 1377 849 3806 261 3854 1851 3405 205 58
4621 1460 0 961 1842 920 1121 848 482 1688 759 589 476 1068 1512 812 2237 675 1804
3468 1331 1236 94 5642 1867 7446 849 381 1874 7642 1253 145 330 2045 1179 204
6858 1226 536 1455 2093 399 2288 124 1083 682 320 1483 1008
847 23 1174 1579 1022 698 714
6341 426 477 1950 168 1409 1050 233 613 503 1573 1578 1022 23 236 698 647
5760 739 3774 1925 988 402 3063 825 2674 830 3054 1988 1163 1671 1313 1117 3142
7025 1070 877 727 565 680 246 201 872 1182 284 168 854 895 784
2613 27 588 1123 3866 1478 514 1381 944 1050 818 1027 3683
6921 269 1516 969 44 716 622 1034 1179 677 134 493 2532 1659 80 244 1221
3007 967 968 526 747 355 1186 1418 1097
3851 451 2811 840 1170 1109 1037 734 1019 1015 2760
4981 1318 1776 1909 1809 1096 1010 898 1233
9808 1813 1303 562 93 743 181 472 2195 1468 1446 114 655
3510 767 2006 1169 784 748 1871 1830 1999 1799 550
93 1591 2585 504 334 529 887 130 1796 1213 351 1212 463 1004 2393 173 1144
5332 1097 867 1781 527 1761 399 1735 1251 342 1692 1297 877 1904 18
6980 1589 2585 504 1582 1819 1822 130 677
6696 1797 1496 1979 703 892 1045 929 320 1419 1337 435 370 1626 1005
5614 1601 1382 1518 341 322 704 419 1030
8515 1722 1489 1112 169 197 1084 1407 23 1808 239 485 1270 864 711 946 1 845 1360
7303 1054 2722 27 1338 243 1598 1120 2373 590 743 1691 786 692 44 1185 267 1044 1764
7197 599 1575 1397 1275 15 1652 918 1552 450 1811
4014 574 384 1226 1968 1455 627 175 1828 978 940 1043 1011
1404 536 873 1201 87 1919 1688 880 979 452 1434 339 792
9178 1002 877 544 1566 1087 1 1091 209 1092 1773 964 1001 1700 1133
2912 1479 557 1491 1674 336 1205 1923 1631 534 2042
8356 1518 169 445 755 1593 1382 1072 978 322 148
8090 822 1864 1216 5167 200 1214 738 1907 301 656 206 1445 1755 692 67 611
2175 42 1527 1826 1273 1702 297 689 684 195 682 635 1188 617 2079 456 14
3501 1541 3868 1839 3311 1134 1609 564 4452
6196 1566 1717 1078 2593 1959 1502 163 1849 1958 811 1517 382
7590 1550 747 437 726 935 1314 1035 1351
2726 262 4941 286 2705 1320 1503 308 256 1513 360 151 1707
4405 95 786 1566 1686 43 1858 1164 845 266 2815
2540 1655 1473 977 1571 1776 1697 569 543
2066 887 1319 1189 1356 1197 574 239 1990
5366 1427 2103 259 3334 1829 3909 171 112 459 701
3920 1010 2215 1254 1593 135 296 1255 1546 360 312
6132 523 81 346 234 1767 1086 989 981 73 507 906 589 933 438 232 1259
4127 1572 2385 1763 453 442 2213 271 1105 1090 565 598 1347 1835 0
4097 821 1865 1534 118 1623 1764 1154 981 1350 1138 923 3835 1385 559
1735 563 120 1289 300 1709 1318 137 2024 383 864 866 192 886 329 289 446 364 1920
6905 973 288 1876 2333 466 1389 214 1673 1511 1462 519 1339
5856 948 988 1408 711 457 187 555 1296 258 684 1403 2650 1260 1148
5845 979 515 693 1120 1624 452 1132 870 1119 443
4918 1773 387 757 1331 1761 223 1310 635 1047 1152 619 528
5982 1177 814 1389 1754 896 3170 801 129 744 2152 627 635
9092 999 1857 235 2818 1468 124
5540 821 2085 1534 2128 1844 3287 1615 1764 1154 2525
5678 979 357 1619 452 1132 673 1957 1133 1794 1420 681 62
3944 1285 586 1098 1661 62 2752 226 589 1220 3066 1026 77
6748 1592 1005 435 1128 1419 1400 1466 997 146 536
4481 873 1470 1929 3944 1049 1509 724 3293
3256 575 2039 819 2285 1992 809 586 734 675 214
7950 1910 3416 1002 688 885 1906 1087 1670
4668 1908 729 1712 1018 252 1429 1356 1167
2894 1657 7728 473 380 761 1709 546 4130 465 3833
3300 1833 233 950 663 1903 1425 106 142 133 600 938 193 716 99 1219 437 1909 1456
3763 102 927 870 1484 1554 1843 1102 1261
2362 617 2365 901 550 915 1487 1550 1135 593 1189
8734 474 285 592 1172 1046 1013 654 179 1871 167
6576 1991 1467 1339 1953 468 402 1040 2342 1384 1709
1652 421 1772 1936 197 745 294 1869 80 946 1338 1269 998
8047 717 874 630 1246 1104 819 1884 1425 955 726 1780 382
4156 987 1341 1261 1263 1955 799 1338 721 790 1014 474 227 592 416
5745 1323 844 1843 911 574 599 317 1997 777 2015 1822 1494
4121 1523 1710 1186 1509 205 1850 416 1165
6140 1462 3005 58 139 1127 868 559 2147 1793 1462 1163 4788
6052 263 1469 1451 427 1086 1488 1444 1434 489 1149
7002 753 103 431 1028 136 1027 316 729 267 725
7163 68 746 922 454 1687 649
3761 1377 1140 939 416 595 1325 427 22 679 1021 1539 1479
4925 608 730 869 2659 20 3005 193 384 1346 1944 785 2819
4449 1742 2211 48 2946 1267 520 1221 1768 1175 83 82 627 1412 2149
1286 1945 1289 686 1133 1688 571 1886 386
3975 109 600 843 5153 550 398 954 5102 1365 1572 1043 2060 827 1499 1240 388
4425 1075 831 1952 2230 392 799 732 1563 997 2423 19 2612 694 1532
2675 672 3924 1541 267 400 827 882 2196 1929 2747 1134 1212 1928 772
6662 160 1856 1973 1601 1752 440 1251 2154 509 887
2934 1921 686 1354 2216 1784 834 378 1510 1505 1073 241 1249
4348 1679 1275 1334 1327 977 132 1609 1473 1152 707 569 737
4792 832 1761 563 1179 279 1140 1076 60 1124 1810
6060 1631 7728 473 1104 1264 9426 546 1550
6636 1934 1748 979 1295 1815 1213
7461 1583 80 244 1317 493 620 30 1260 1375 1441 173 51 1433 110 881 535
5125 1055 1922 1948 1084 1493 1684 271 132 416 3257
5351 1783 974 1080 1037 984 1020 1693 248 1906 1256
4515 1460 1412 920 1456 1472 1002
5379 599 2725 1397 2455 22 287 665 1029 1161 653 989 266 340 88
4599 480 1707 769 2300 620 1422 206 2914 1950 360 18 137 67 2429
6781 469 1432 1508 4969 1109 6040 1039 2710
6675 44 465 786 2198 1757 2625 991 491 1475 2482 1157 1821
1453 31 313 600 4906 99 2789 250 246 138 2834 246 4494 1930 638
5994 754 2478 744 1660 585 62 382 1014 565 1068 1207 26
3589 115 2317 31 2061 735 352 1121 1743 1011 81 99 618 1242 580
1017 1051 1213 164 498 7 1637 613 292 1682 1387 1379 469 1232 1210
7295 1166 3826 402 3186 1580 1313 110 3383 1401 4000 1117 4101 710 113
8681 1956 1538 280 1982 556 214 1959 771 9 1720 116 953 1298 827 72 361 1218 678
2030 612 1660 69 766 1706 1776 1931 1692 194 1872 678 1830 1766 1045
2513 1136 1145 1368 180 1028 53 17 918 139 406 1245 1620
3178 88 2058 371 4738 575 1469 1916 792 1168 138 586 390 1778 689 1922 3324 1721 1579
2870 1063 1539 433 337 323 3258 74 2436 1321 2195
4565 5 149 1360 618 654 1885 902 1819 1862 243 669 1183
2039 1029 343 795 1738 520 639 533 187 478 1775 1969 428
4810 1655 1275 1334 968 482 1847 796 318 1152 1368 756 1065
3846 879 195 676 349 1106 1410 1237 185 1332 2724 335 2736
7476 34 147 1146 5054 1861 1544 1110 917 1544 3172 184 2266
4589 670 1397 7 1035 1215 1050 613 2790 1718 111 1670 1387
7079 841 1120 707 661 1188 1555 1914 1244
8610 1283 1058 1200 2268 1854 3559 1870 455 1005 1338 684 923
6157 1686 1356 41 1558 860 948
6479 545 1677 255 1021 41 314 1685 1356 460 879 860 50
3619 1481 500 380 958 57 1155 1645 649 68 150 922 647 1502 139
4867 961 389 1575 759 1649 571 1945 1157 1886 1132 589 1193 1841 1086 517 854
8295 336 181 534 2733 958 2532 489 3211
4943 782 1816 993 1760 1853 568 518 2152 449 376 810 1 789 1072
3843 1147 582 1054 1434 1548 3913 590 1013 1088 751 1713 3205 1052 64 1495 678 1595 786
4454 369 259 272 427 1428 368 772 1402 758 1534
7581 1661 248 570 1257 701 287 984 672 1906 777 824 97 963 284
5460 1064 979 244 1200 605 756 1433 1110
1515 513 2647 661 2001 1849 1331 510 1392 740 1102
8410 1825 1529 1265 1394 25 2165 83 407 1135 1147 1022 53 653 159
1228 1314 2074 976 535 848 410 522 1643 997 1680 1277 93 1549 876 1037 4
7132 202 360 626 704 455 953 348 100 928 1106 508 192
4099 1523 391 792 1492 156 276 746 1633 85 455
4874 1091 531 1194 2926 1092 425 1599 1133 407 764 36 85 1248 1146 1824 312
8995 1181 3732 150 1250 1190 932 1012 1613 768 381
4818 1040 137 1826 2009 1603 297 470 2125 1384 2837 195 2702
6555 1933 2252 1023 346 837 454 889 401 1018 2229 260 1376 860 1125 1258 1397
5812 1073 1627 1361 81 346 134 933 719 1932 1463 391 2618 1454 1968
1930 62 1111 226 2775 101 3792 758 369 1176 1814
4745 341 375 612 1694 69 1867 910 464 1673 1776 1009 534 128 1390
7311 208 799 1222 512 521 1113 350 1094 1378 1304 245 620
5736 641 1112 1133 936 516 844 251 852 381 839
5357 1616 1318 886 1418 92 893 364 307
3060 363 9319 287 2528 720 5988 1960 3276 857 2815 1386 1608 1178 705 111 1071 101 972 320 4200 1362 1610
8772 1014 409 471 1034 618 338 1019 810 1140 462
3462 252 474 1630 1018 844 1738 1356 949 969 1501 872 638 309 343
9403 1052 3166 1691 3205 1495 3779
5359 1358 5688 1561 39 76 3070 1421 1747 1426 14 1342 1586 1736 3049
6662 1862 979 1461 975 719 886 454 105 902 544 715 1505 1464 1601 836 679
1318 319 1660 1145 1872 1317 51 122 750
5170 945 904 1223 1145 1069 152 968 1558 1543 720 1554 473
2501 1749 1261 781 1893 670 1211 613 1420 1814 404 1682 111
5107 942 1486 605 1888 1104 299 630 1429 1965 198
7945 234 31 594 740 1962 1136 167 547 1396 224 614 566
5805 401 2295 284 1945 1675 1579 1916 456 1947 1002 1107 1129 1922 2776 530 386 316 2064
5549 1275 2373 1 69 1112 430 1594 1489 197 1064 1859 725
7373 1792 2657 183 1367 1020 2565 1994 1585 412 141 1128 810
1913 321 1090 78 2692 830 46 1346 2841 1220 2959
5204 1986 1515 895 880 824 1231 75 578
3408 1158 120 1509 3236 1233 1364 808 1041 615 311 1257 1935
7726 803 1308 834 1301 552 764
3177 749 3385 519 1499 1569 1809 1167 3062 1465 1842
9047 853 3213 353 2215 1831 4537 799 959 875 2030 1739 1891
4597 1836 1106 361 125 150 1218 1190 946 1012 93
983 324 1191 1556 662 1118 732 168 88 573 1130
8122 1889 2966 621 1258 162 476 773 213 1766 224 1420 2882 1329 1086 533 120 639 548
2811 878 1353 302 3820 1812 1440 944 1478 664 1224 767 24
6600 847 1550 174 450 501 138 1805 1109 1126 381 1327 3232 787 437 800 3561 1261 127
5808 1781 842 757 822 1761 1578 1590 1251 154 1352
2662 1358 11917 1426 2107 53 13975 1714 3049 1557 1857
1170 1530 778 1243 937 322 625 1984 771 419 784 1447 1381
7840 93 1499 359 1775 314 875 1977 723 525 707 388 1258
3502 1729 1891 875 2833 1438 1899 799 136 1231 2941
5699 535 1404 409 775 1979 1653 583 855 1419 86 998 959
8620 411 1678 203 933 208 1480 1363 724 1156 1655 1321 169 521 191
4948 1548 140 590 1672 1882 3596 1036 830 1267 273 1648 2211 1412 1511 123 1577
4258 604 3749 703 2805 89 724 722 751 1762 2351 1355 302
2440 1790 1980 1942 952 937 524 1294 970 996 226 815 1178
6197 1466 756 1343 638 15 1357 146 1305 38 852
2952 396 2193 1940 637 1572 2854 1293 2055 271 2429
758 827 3507 175 1657 1043 3480 978 1675
3536 1800 2580 876 635 1138 2773 576 2310 1935 1095 760 964 248 409
3429 1252 412 134 1552 863 2181 742 1292 670 1077 1718 1261 781 951
904 432 1582 1521 528 406 601 135 325 1254 1295 1304 1424
4396 712 3450 1210 884 1462 482 914 3625 739 1045 778 305
7063 1653 440 1973 1182 1978 888 1251 526 633 1434 949 1436 374 1745
6457 1515 1325 222 21 377 438 418 942 358 1326
7883 1178 1018 571 1695 1362 1416 437 1846 935 367 1545 1251
5676 738 3250 1602 692 67 2744 282 752 105 274 1351 813
5596 1564 2089 1402 4849 1312 1609 981 3813
8120 44 931 1398 1971 991 177 333 544 1666 2625 398 1539 453 926
4347 122 456 618 1801 1305 1015 1347 104 404 837 858 197
8668 1009 304 128 891 1414 430 1782 386
2709 558 1136 939 270 649 803 1235 951 1336 798 1025 339 430 641
5715 757 757 1904 1802 1590 399 1735 1578 619 729 1620 223
7161 604 1242 1053 2186 722 1817 1743 2351 810 1946
9362 1442 732 1273 1919 1572 1948 1293 1949 1090 1174 1614 453
4932 1318 1517 1975 136 1986 488 573 1391 656 67 1512 1430 824 417
4151 1522 3385 725 1465 305 2179 685 2661 683 1533 1079 449
497 162 4200 1732 224 639 96 1129 898 1931 2053 194 1947 1673 1045 1239 763
4772 523 739 346 1174 1373 958 1613 1086
8569 1888 884 37 1016 793 618
4187 363 1750 384 8413 270 2566 1450 2024 1108 7168 604 5416
9247 1866 1894 1918 4667
4525 376 1735 1036 791 1259 1847 1482 497 123 2746 64 2642
9894 1081 1368 943 1026 924 1016 492 679 496 293
4883 1547 1409 1078 1356 1310 1264 1047 853 1620 387
1994 1869 890 149 1023 1037 622
5849 1429 1329 1949 283 1505 339 1155 2342 925 478
4475 977 1410 1609 1697 310 62 569 399 1105 2822
4265 1506 815 1103 1158 1359 863 1976 1209 1266 79 1044 1649 1050 869
6660 575 1859 1675 689 1992 484 1922 2086 1180 1354
7509 688 1979 1191 2 1065 1505 192 1037 1893 2755 1205 2605 1062 2006
4183 1476 183 1209 1450 1392 1643 1272 793 1311 27 1638 382 1884 2094 955 444
8206 1385 1411 1097 2400 1993 34 1961 1548 154 32 1735 842 1590 527 1985 1706
569 1759 386 128 179 1414 641 360 649 709 1303 811 681
2286 1298 1204 1661 974 1080 1347 113 708 776 597 285 732 984 864
1507 16 1053 225 1358 625 1683 1406 647 1654 834 1921 191 378 157
6257 1866 2611 1488 2709 1863 1621
7366 554 156 1972 1496 87 220 59 398 2 2118 1393 1002 1528 1261
3916 241 48 1322 2094 1354 209 554 1668 1193 1673 907 2356
3364 705 186 678 638 602 2108 1092 573 964 1965 1380 113 1172 96
1923 193 1931 828 2172 634 1915 1998 479 1176 1055 785 332 850 278
6758 580 157 1744 1980 118 402 1942 733 996 952 8 2140
7952 1454 1671 1540 1948 1553 2935 775 305
3569 183 2189 1560 4228 1994 973 1723 2657
4539 539 1931 58 1664 1642 1462 637 2394 559 223 1196 920
3962 179 1508 1360 251 979 349 1815 350 1957 319 669 131 1624 1420
4938 834 887 803 2357 99 364 1325 605 1503 1608 250 1775
6193 912 983 952 91 804 2739 1130 1921 1340 739 1157 1124
3610 769 1771 490 555 620 2045 929 1346 1979 1197 1592 1496
7101 385 219 787 1297 1338 311 790 1185 191 361
2656 760 1029 1588 550 1830 420 1873 1143 748 594 576 411 1899 2183
8281 65 1900 514 1415 1748 2580 1138 3493 876 3131 117 5519
8660 1376 3319 843 1228 975 5425 662 764
2576 1813 974 196 4484 988 114 870 2604 138 2612 1268 1746 1930 926
2968 1068 2229 1291 1815 157 1448 589 1426
8416 97 84 1415 337 1013 657 776 879 771 62 285 1228
780 847 1320 1214 1938 273 1143 1734 1109 1126 2455
2301 1312 1309 1056 1864 891 1480 1191 2663 981 4397 1217 3460
815 1179 5123 708 977 1125 3396 1940 1781 423 4616 80 252
5086 502 1519 966 440 1407 120 530 518 1594 239 845 1797 581 151
5937 1058 448 577 1131 1084 1539 874 1094
6279 1055 2086 165 2272 842 2032 1948 1800
5746 835 943 1894 1087 1187 502 60 347 129 576 1939 859 567 244
1396 578 797 1099 1154 1733 1440 878 2227 944 975
8060 743 1299 988 1145 1802 974 196 946 1587 1303 114 2000
4859 781 1568 866 262 613 2199 1718 404 886 1539 1232 923 334 1252
3991 300 1449 373 338 1031 346 179 554 1658 1213 1934 51 979 692 1794 350
9455 1832 324 526 1901 538 1420 202 84 900 1573
5331 889 607 1203 1327 260 1274 255 1083 41 1459
5921 881 968 839 1060 103 295 1433 254 181 179
7176 549 238 1542 189 1591 1822 504 649 651 2101 130 910
4972 249 1639 690 796 453 998 750 1308
6789 542 1122 1223 433 393 229 871 470 730 533 1069 237 1543 680
2469 317 23 1640 1494 1423 1046 777 420 528 1099 560 1031 367 260
4599 784 1664 452 1796 445 2110 339 119
2676 221 946 36 1017 1700 312 992 229 537 911 1248 1039 1316 520
1450 131 706 439 1964 1265 980 1545 1399 653 549 1696 1529
1877 42 1403 835 1423 470 935 417 505 1702 2009 1603 1273
3492 1941 671 941 541 433 553 74 1306 754 1114 1321 341 1207 1577
509 1293 1458 467 2865 1442 1377 1416 1204 40 3125
4698 1611 3909 459 912 931 1562 1003 1184 207 600
4539 1008 14 1471 1874 1169 1182 1588 1999 515 1932 1970 319 1899 991 1799 420
1778 524 684 49 1448 1067 1906 951 996 353 429 1033 887 1729 4537 875 797
1604 388 1679 1977 840 526 517 1816 324 1571 1003 538 602
1941 529 1300 97 7 106 2053 1213 1038 1896 582 950 1213 1632 233
3707 523 2067 989 1630 535 1759 409 116
4403 1090 1934 1614 0 165 1022 387 1469 598 2407
6441 318 619 1149 505 1076 252 1042 1390 1190 847 361 398 1730 1106
443 1942 1443 814 714 879 1875 580 1652 180 2896 1000 1615
4066 393 268 730 1247 687 331 1016 1111 1971 638
5052 1541 1223 262 718 1604 3311 1320 2185 714 2236 1852 2047 564 326 1335 2441
5800 1559 90 210 978 1449 2556 557 1263 666 1251 755 338
7178 1886 529 1688 1086 1296 1500 646 656 517 1165
3922 273 470 1952 2183 1487 242 1206 1091 140 520 1303 1334
8181 1323 233 161 1696 874 3052 777 2144 1640 911
6134 831 10561 1534 780 1623 3287 1154 5048
9014 1327 2469 1051 541 1215 774 787 493 164 1629 7 992
7533 1174 441 859 442 1337 1247 917 1099 512 562
6182 1374 1260 137 1456 383 34 1234 99 289 1891
4480 572 657 986 470 541 712 1007 596
5701 1695 1331 510 3094 740 3174 1274 933 1544 508
5243 836 549 908 1511 21 1237 334 709 1456 166
3061 1306 89 1574 3405 1422 1816 205 3297 1523 223 792 420
3782 107 2140 1839 2047 564 1148 44 3852 1309 692 1398 113 714 2530 741 2016
7074 1690 568 256 1480 993 182 403 879 1045 2855 518 1643 26 334
3426 650 836 1048 1366 952 814 965 3494 1684 3559 1283 700 684 1977
7429 440 601 1188 1378 414 1013 707 414 1347 1051 1151 207
6968 1569 2478 1167 857 1074 1596 1324 285 959 919
5681 611 1854 620 146 929 2142 426 1008 159 1100 1897 276 1990 1133 1532 700
9367 1562 1204 1573 813 1152 520 32 1357 1999 1091
1733 186 957 1 825 1722 725 395 1187 1295 456 197 110
3676 515 2348 1899 1157 673 186 1245 1318 826 1747
4644 119 2039 34 1756 1681 1544 447 2527 1244 972 184 236
6101 1677 243 681 326 1461 1718 902 1836 669 693 1715 979
1608 1785 1621 1527 2068 1866 83 1273 1477 1488 1729 1090 1257 905 851 387 1522
3608 461 78 349 3088 1895 2587 1243 1452 568 603 861 135
8424 1399 351 291 774 1122 1282 1290 794 797 695 1971 996
4039 1785 2611 1527 1341 1770 1894 370 697 1918 966 1863 83 1416 1470
7426 230 2274 1163 873 1127 5923 628 1517 1576 7446 1331 1965 1253 1587
4437 822 2112 738 32 301 1144 479 281 1038 1238 105 1664 1319 929
3099 421 649 1637 80 1549 238 864 568 946 12 581 1146 1774 890 149 206 1037 888 753 654
6352 786 1774 1538 881 1684 455 1200 1009 1005 1740
8383 482 716 223 924 5 182 1536 252 1955 220 474 811 1046 857 654 474 1635 167
4887 764 577 1887 8 794 911 357 535
1632 748 2756 576 2124 1799 1143
2993 1125 5950 1576 7642 849 872 1179 4385
3829 1032 2155 1938 677 1907 1773 1308 427 1105 2192
4304 477 1739 466 1866 1617 2333 1465 1595 519 362
2554 351 811 1302 3119 808 629 615 1818 1257 2144 1066 2058 295 577
6738 1183 1762 1348 1484 237 8864 293 3343 153 5706 110 5720
2234 1489 2226 276 1749 1000 1149 147 2117 676 321 1106 3150 667 1930
7488 1197 1519 1241 737 239 361 347 1138 1145 82 584 149 723 257
2243 154 1248 1279 1039 1474 1854 960 1497 1985 101 84 1017
2447 1548 2383 1088 1076 1944 2076 1742 3596 1036 1283
7850 254 178 674 1058 176 295 1518 253 700 967
6784 1353 395 1311 1133 1638 1425 328 1322 579 1388 1780 2094 1104 207
4074 863 2872 887 51 1490 1208 172 1340 1081 1378 943 927
3407 1892 163 1126 2054 253 363 1649 386 686 1710 646 569 1841 529 1688 1132
4362 900 424 1418 1404 141 1464 794 63 337 82 357 620 1872 8
5065 220 1837 235 898 1768 884 37 204 1299 170 1399 110 793 881
5587 773 1805 621 1868 1732 2966
7637 856 6647 868 970 970 18 1565 5589 897 1717 778 1391 1166 253 330 1116
2821 1093 4370 1470 284 1501 3664 14 601 1276 1478 1275 433 19 296 1112 32 1224 4102
4968 1126 2289 1886 163 646 2728 210 2586
5115 1779 2755 192 297 315 2036 151 97 658 1233 1205 392 1068 491 1291 3585 553 1343
1438 835 429 417 679 131 1194 1811 1087 60 1217
7945 1319 456 349 488 332 332 479 1497 1864 2587 568 2425
9252 1833 582 950 507 1211 556 677 1406 1213 1217
4927 611 1539 1857 276 1139 1097 972 372 763 610 1990 884 985 1458
431 1453 1270 550 798 954 170 899 3873 1091 2132 1483 1571 71 918 124 2932 1194 533
2838 760 187 1830 991 1799 2183 515 172 1860 1157 1368 574 248 1021 1245 1466
7329 1059 150 532 615 844 1803 1531 319 481 1158 309 614
3585 1193 2719 644 3555 554 1504 1972 253
6090 63 1024 1921 891 1354 623
7015 950 1568 716 1668 1632 1425
7486 1761 1802 342 409 1590 18 1337 638 1083 1451 619 567 917 993
3366 697 4654 957 1676 591 6398 323 3544
2373 1661 1256 1080 33 1920 724 1693 777 691 793 1281 683 824 10 143 292
2343 1875 1773 1105 600 1573 852 569 359 1999 1090 1308 262
6852 733 1066 424 298 79 1051 579 340 1356 586 1630 729 252 1012 609 328
5942 133 1424 1586 1809 938 320 898 67 1632 1456 1318 19
2973 713 4063 1239 155 145 682 1002 11 705 850 1629 3416 903 1049 885 593
5448 464 1621 86 476 336 1952 1923 2030 893 1687 325 1704
5411 107 1688 1366 1542 1398 1017 564 335
8131 802 935 1410 1529 189 1158 39 483 1019 67
3477 802 173 841 1282 1683 1244 707 1049 1410 1960 541 195 1171 1200
6492 513 254 882 1910 873 625 661 3195 115 1397 600 209 224 1303 735 2223
3062 77 2400 441 3240 1146 922 371 935 1110 5417 401 6165 1675 792 1721 456
6025 266 3605 761 1584 4 3141 465 869
4814 1866 966 443 5376 1416 1957 1770 4667
5583 622 593 415 2434 1201 1078 1480 1532 339 1798 1598 1688
4918 72 1297 1218 638 1080 546 927 777 1906 724 691 1292 326 169
8774 16 1866 1654 686 1784 191 63 206 616 1609 1902 891 1354 888
3197 1675 3324 1778 2086 1107 856 1180 140 1721 2776
2634 464 1466 804 3452 1491 671 336 1366 1600 1631 1911 2030
3599 341 298 612 2917 678 211 432 1691 602 2126 1521 1759 1380 1653 1316 19
6189 712 3478 739 1462 1580 988 825 2214 1233 2979 1307 2097 1210 2129 869 827 608 3402
6834 831 4103 663 880 1500 2973 957 2175 591 5654 509 224
4925 232 482 73 44 775 1036 307 175 906 762
3409 882 743 1652 772 1134 1839 224 2707 1170 1875 33 1383
4063 400 2476 1627 3944 724 302 882 1408 1652 2747 873 1222
3374 1244 3141 510 3481 1274 2855 600 2338 562 4037 196 4516 138 261 1802 926 1667 638
6350 1129 2219 69 1151 910 440 1766 2053 1673 1692
5077 346 1328 933 1087 1704 1463
5692 1703 2252 837 1941 1246 1158 1567 1675 889 632
5282 1533 2412 300 322 1282 609 1103 184 1658 1748 979 729 1815 51
5313 1748 1095 1524 124 1138 1650 45 381 248 1406 56 1547
7975 694 1111 421 1373 732 399 149 1107 1269 583 1637 197
3933 1286 248 35 838 1558 854 1987 462 610 921
6166 169 2856 310 2651 1032 2580 1105 168 1875 677
6250 1811 859 1552 772 1187 368 567 860
3323 1807 1781 396 1907 1125 351 261 2990 271 1308 1746 637 80 2037
9139 433 306 74 707 1827 671
5659 1837 1443 580 1491 1744 952 1790 733 814 1293 312 486 823 1243 815 922
2289 71 1096 399 1391 36 1266 1194 1765
7439 1088 2426 926 2801 1882 2076 1036 73
6459 961 2108 920 7 1472 413 1649 1289 1688 1157 686 382
6803 1412 1295 1175 1319 655 808 706 1026
4555 186 1741 401 1049 284 5229 1295 2028 1407 108 966 1881 1721 1002 502 951 530 724
4183 1660 1084 1055 506 442 202 1493 1440 165 27 1810 1800 598 1243
5430 1184 2042 1505 180 1155 2013 925 1758 1775 283
1713 620 1432 1664 360 426 2698 18 3436 503 1094 1579 168
5451 1173 958 1147 1817 1123 917 1478 3601 838 2760
5215 392 313 1487 2824 1651 2230 1842 2183 997 1472 140 684
7230 34 1551 77 1893 441 1589 1146 3048
4514 85 2044 1055 2242 1175 2358 1482 1287
6511 987 738 1536 1442 1871 220 1639 799 474 1797
1548 556 2281 95 1936 1959 2314 1672 1538 1566 780
3154 1794 319 669 1212 1624 1133 681 717
6928 1605 811 1078 672 1517 1692 597 675 1310 1103
8588 1956 2314 1605 1502 1566 1077 1672 771 116 709 163 729
7198 720 3993 1974 5791 1710 3276 1386 6954 1249 5131 166 4 1477 8876
1350 1387 187 1993 2094 1781 1548 960 1155 1985 1462 84 1278
2477 1720 1136 614 537 1140 1653 809 571 167 162
3499 1101 1912 475 1981 364 20 1464 663 1456 47 908 1959 836 272
8032 356 910 1132 665 681 931 158 565 1506 101 1119 296
3514 231 1573 717 510 728 433 1996 1500 129 0 1719 198 630 566 942 914
5573 14 889 352 1128 1 1027 1275 1431
6132 607 1505 875 716 1438 819 1102 847 491 1276
6123 1137 4326 82 1022 746 2327 1422 3688 792 387
4645 1977 319 1029 514 916 889 1678 428 478 532 313 414 626 201 1571 207 1116 1110
5804 1471 2696 807 1432 1169 511 1830 319 506 605 770 2216 23 391
7075 393 715 1838 638 1016 489 1122 601 1290 413 1865 996 1165 123
5409 1901 253 936 1120 644 1232 554 1475 940 1229 1786 1496 290 1001 1528 959
4890 663 3296 160 227 1653 1601 1500 375 1752 1182 1534 3321 1350 1145 633 1182
6935 648 5111 556 1737 166 1457 1960 5791 1477 919
8717 324 391 1391 209 1270 897 1318 1068 444 570 980 425 1764 136 573 590 1096 1133
2246 1284 1008 855 1154 624 618 1777 1209 1050 1363 1506 1012
5701 1738 723 388 625 1832 840 525 1046 478 2120 1969 319 1571 583
5288 61 676 1251 1933 1752 888 1363 545 411 861 949 1183
2345 490 2053 409 1762 1797 1197 1740 1653 1419 1056 1592 703
4330 650 2753 965 3832 729 1045 463 876 829 2555
3361 1010 1783 1304 666 312 1762 823 276 883 840 13 1091
2621 1345 233 1315 1430 52 1246 877 671 142 99 1115 1029
3523 1234 428 1498 485 50 2257 588 533 852 1474 1124 207
6552 700 1068 1518 457 419 674 1737 771 1447 411
2486 1781 1706 154 1923 960 898 1881 101 1961 1462
3709 895 745 168 1096 1725 1515 573 1240 1764 488 824 104
4664 647 582 561 1135 631 823 1017 1181 833 36 100 525 35 162 1558 997 1937 462 1313 546
2556 1580 1163 321 2580 830 229 1117 2561 91 2756 1463 363
1974 948 271 982 1406 629 984 555 410 121 911
1076 1857 1133 426 1965 763 458 1409 1604 1897 884
3122 293 3900 1339 2813 1421 3478 1040 572 1636 1467
8378 1314 701 575 684 819 245 1628 809 1778 484 1180 1123 1277 549 267 376 338 906
798 923 2711 1387 2260 1385 2014 1961 2094 1781 34
7004 1792 973 1723 1585 1560 93 412 805 264 1167 543 1624 930 554
2683 1205 1212 714 3289 1062 3196 741 1095 862 320
2624 1022 1357 129 1361 942 1510 1965 1500
6815 1182 1550 213 1209 798 1080 1517 24 297 528
6280 62 564 1220 541 634 2111 1789 479 1346 1690 1176 2540
6488 1562 260 1858 1091 1907 1090 1573 819 1308 1312
4903 632 708 1459 1463 487 397 264 207 1485 832 126 218
