1000 2915 11
386 355 1534 921 450 266 39 377 1786
4632 676 1478 92 345 634 156 862 340 194 244 643 693 545 1534
1717 888 806 156 266 31 82 243 373 351 140 46 751 5 273 765 660
4193 386 569 454 224 238 456 678 237 385 359
7910 768 946 888 448 46 412 3 273 261 467
8313 57 916 523 12 941 303 281 249 646 190 222 1025
1595 363 465 910 513 521 560 367 646 242 378
9510 720 540 865 196 474 511 292 986 231 51
6417 436 369 240 317 287 530 494 114 13 73
2334 179 548 251 175 365 398 325 208
5023 933 13 347 648 631 844 620 441 166 1283 995 430 105 223 489 437
718 95 401 383 24 909 292 835 244 354 499
7991 312 83 345 1005 183 234 9 73 287 582 494 503
4273 730 639 518 297 774 633 672 488 159 198
9159 299 769 572 309 716 48 886 511 712 348 928 183 203 762 953 405 84 34
4340 746 792 815 455 464 750 703 612
2182 933 443 964 82 309 496 144 252 427 494 506 270
484 735 919 393 917 82 542 960 58 679 70 113 152 615 1182
8313 484 335 359 805 712 234 928 903 476 563 103 295
5482 497 379 664 966 802 19 920 896 595 205
2568 824 326 530 362 167 238 675 415 134 172 469 222
6144 780 15 174 514 149 339 268 595 883 480 65 225 626 180
2703 150 1270 60 728 344 886 645 72 703 557
4991 40 82 741 271 690 906 713 687 509 429 376 314
1199 588 199 173 726 847 436 568 628
1294 781 298 272 1539 531 651 987 32 116 180 477 1401
3984 852 896 154 206 390 660 940 119 194 654 912 116 545 245
675 958 193 523 251 939 151 442 910 360 707 457 881 640 548
9461 359 493 748 243 449 440 972 682 192 187 78 107 712 908
7649 742 800 963 975 512 131 988 130 231 509 383 8 554 700
3848 758 212 768 231 888 809 156 1052 3 82
1729 967 0 381 838 545 1036 140 192 974 435
5538 348 217 262 117 571 286 54 491 630 439
3779 437 411 509 380 376 382 868 206 416 346 43 1000 273 147
2713 280 1264 709 161 77 655 671 868
6835 966 609 559 151 447 568 200 67 475 555 773 333 876 498
469 753 1216 885 1532 821 595
4631 750 911 263 723 429 15 317 558 779 314
47 480 391 136 252 939 447 558 302 640 310
8010 372 621 300 196 631 235 620 261 24 82 741 651 690 542
8737 506 182 427 492 257 781 818 734 604 2 905 139
5372 740 417 623 975 253 747 813 774 97 595
4922 376 168 34 1000 273 284 369 142 466 203 800 506 567 342
5714 864 1293 498 165 130 856 810 409 612 1163
3347 114 858 764 558 729 92 126 713 880 236 616 548
854 681 243 765 372 538 315 3 751 869 539 5 412 261 437
7993 543 114 263 377 429 331 949 308 617 167 561 594 779 167
244 446 2009 68 425 525 1388 251 610
4348 838 1343 971 479 574 79 612 1451
7564 88 692 851 179 275 401 230 451
9731 913 166 190 275 220 438 457 382 522 622 879 182 542 294
2295 611 468 461 84 241 213 123 427 141 224 223 191 943 235 417 45 930 549
1165 778 262 495 621 278 571 618 693
8713 70 459 262 548 33 491 991 283 630 13 636 375
9013 572 341 716 249 928 477 332 803 660 320 644 340
8184 818 132 565 425 128 442 801 492
2382 283 1284 941 701 523 8 6 916
9907 516 456 218 635 458 685 488 57 277 111
9614 734 791 485 227 683 151 452 746 161 1038 76 237
3837 344 33 23 728 945 550 703 289 254 127 548 636 575 346
5151 922 613 505 224 665 31 841 326 651 545 997 258
9314 553 470 961 438 400 534 833 186 821 219 438 295
9097 955 1184 811 551 954 677 403 1414 774 409
6833 819 70 798 662 524 556 992 335 848 262 279 247
4374 268 349 22 225 118 398 626 314
1221 683 812 655 351 199 693 994 436
8206 601 601 217 363 276 130 371 618 738 790
9096 365 348 525 529 251 515 48 425
6152 648 501 492 780 902 1035 329 659 494 143 184 216
970 54 459 636 974 614 279 207 176 219 300 262 62 127 1010
7818 122 38 734 757 213 175 659 647 751 612
2968 808 339 402 445 860 397 445 607
4478 200 418 121 123 544 433 909 506 589 511 354 184
6002 496 1547 996 1663 564 282
2216 486 28 323 795 762 623 938 710 867 94
2341 574 196 850 1016 452 857 59 237 225 84 795 76 161 105
5581 252 155 413 500 671 1081 500 15 557 1491 35 655
6654 931 597 449 360 491 207 192 258 579 445 29 107
538 895 462 734 552 162 251 655 154 683 984 659 165 337 496
6904 264 477 850 185 609 587 916 877
6294 785 427 830 209 247 250 924 229 206 557 802 41
250 18 542 679 547 615 955 517 886 167 679 757 14 134 0
3511 310 547 680 354 697 132 412 490 392 247 616 508
6136 886 59 15 34 853 126 349 118 431 531 947 723 118 167 901 474 953 688 422 243
1411 670 513 468 492 964 609 861 117
3934 917 930 246 1619 884 940 890 342 467 356
2082 598 1816 851 63 278 155 887 1344 275 839
6494 275 341 278 1243 50 692 969 394 937 290 230 139
6717 168 776 578 256 282 71 694 631 187 1153 957 428
1352 732 55 731 138 570 1163 701 504 754 128 601 980 371 139
5572 584 586 101 279 445 384 808 328
6072 948 560 676 662 634 603 2 345
7512 283 133 635 746 480 411 739 176 794 397 357 686 944 213
2383 180 421 604 256 905 263 529 289
6458 988 802 231 153 835 640 12 401 383 158 554 38
9919 724 52 560 327 803 266 473 391 414 339 205 304 267 685 658 405 857 303
2681 475 541 813 860 42 595 165 146 881 184 361 1145
9415 239 490 558 472 442 760 527 34 640 588
4820 606 414 170 428 214 684 158 541 503 14 975 127 622 471 341 144
4871 209 692 992 443 279 390 600 299 975 24
5578 985 950 952 80 729 417 860 31 91 279 584 348 445 486
5497 691 45 674 316 386 114 832 533 678 315 834 326
3952 484 978 831 14 359 859 19 295 569 400
6070 407 605 147 262 334 370 577 441 352 112 588 651 568 730
7205 11 223 166 178 489 426 938 814 581 84 345 428 668 539 867 169
8017 276 571 163 145 902 123 797 291 184 455 840 366
2580 153 785 474 677 909 254 835 648 589 105
917 757 700 318 531 675 438 134 317 611 176 223 363 133 324
2420 681 615 538 848 755 559 258 161 117 45 869 74
7127 619 728 296 472 878 248 583 735 998 860
6334 619 226 380 868 399 382 324 987 816 403
9604 559 629 876 878 526 589
9218 735 23 135 401 18 152 615 424 955 966 811 240 167 932 518 812 530 123
6187 310 340 729 163 993 629 45 858 616 186 178 748
1509 169 531 219 742 141 48 984 21 796 171 956 28 215 957 930 249
6130 531 58 654 593 923 549 26 180 801 127 405 233 987 9 477 337
6630 109 45 681 404 216 270 234 399 755 88 907 408
3714 853 501 268 112 233 83 65 398 422 482 84 167 626 11
3836 379 679 911 1171 377 227 313 1790 625 150
8612 556 165 132 366 197 822 918 99 958 1157 523 573 255 698
9833 361 352 455 620 200 324 896 716 951 389 73 123 589 137
8008 734 818 71 38 485 754 213 665 450 448
6739 461 465 469 16 241 405 432 340 52 427
4442 336 192 207 834 782 674 206 241
6957 743 159 229 487 488 318 708 457 267 324 727 137
8705 880 316 45 713 616 72 706 927 366 295
3795 70 1010 262 322 207 619 228 393 206 685
206 56 442 818 253 604 375 180 305 801 204
2728 646 492 546 234 585 564 627 922
5669 450 362 485 741 574 456 810 211 44 856 612 205
2632 920 1313 802 470 820 897 510 16 277 547
8877 556 285 189 732 120 366 484 636 197 539 476 99
3845 318 499 108 324 152 287 191 255 223 325
6593 82 0 757 788 824 760 167 218 675 454 21 172 108 317
3286 828 108 530 889 113 401 518 568 982 362 730 806
8849 179 192 635 1181 384 54 480 340 239 614 39 252 558 618
8860 378 1275 244 1158 979 104 326 163 960 469
9554 791 497 348 432 826 194 576 646 262 236
9459 504 440 381 304 852 348 350 497 367 14 154 555
5675 381 309 32 192 852 95 974 389 350 514
4518 115 48 984 651 930 869 223 664 52 224
2251 378 613 270 959 326 283 175 444 236 565
9465 327 209 483 799 394 903 551 412
2409 933 856 17 252 335 603 427 482 904 305 628 305
593 849 888 330 79 425 289 603 202 338 786
6273 533 615 621 604 198 74 320 37 406 23 662 730
8488 747 229 733 21 407 567 334 620 104 262
2345 571 28 991 597 630 422 789 844 847 296
1879 825 564 695 81 780 600 22 339 750 788 883 841
5744 294 1026 719 172 705 125 645 513 23 1270 344 77
520 822 543 828 670 982 373 351 311
6213 191 445 614 111 984 481 223 411 133 287
4997 589 846 759 617 107 785 846 364 474 409
674 852 363 139 555 367 409 27 206 940 899 915 631 624 256
3500 763 500 528 254 698 368 171 490 375 137
9391 758 306 282 71 187 1344 31 1052 243 26 3 266
7032 704 867 701 1004 711 383 178 536
1040 975 343 99 541 859 568 990 576 341 175
6534 856 371 774 369 14 198 722 559 672 213 866 254
4898 340 523 599 547 256 151 478 120 725 1119 597 255 301 43
1364 683 439 59 1038 225 489 321 573 199 260 76 105
3075 895 878 79 251 337 859 746 978 464 112
9173 276 381 808 103 402 534 738 458 797 336 106 145
4241 778 511 638 279 841 340 651 149 936 318
6557 97 146 361 569 881 825 455 368 200 73
8633 11 1283 995 745 105 178 938 403 762 715
9830 82 679 615 470 113 932 824 879 530 551 134 218 21 238
7605 968 712 682 296 578 421 89 776 786 504 282 435
7554 847 312 636 872 796 653 115 531 219 691
6044 214 433 438 127 513 337 341 614 99 428
885 857 390 528 25 658 383 155 490 375 329
3986 973 243 519 772 379 342 934 180 508 855 911 181
4416 25 726 847 105 789 540 352 799 568 206
6051 629 277 780 1111 891 1146 22 514 705 40 260 5 448 470 268 55
326 270 672 249 164 142 444 804 719 699 660 236 75 285 13
7195 950 1651 398 1187 525 943
5399 183 30 786 426 968 603 710 495 401 320
7475 310 473 114 748 704 418 993 516 701 204 157 536 217 348 808 414
8228 10 548 251 132 384 615 239 706 325 306 136 192
6311 923 615 128 305 801 88 94 421 529 12 604 231
101 663 765 564 446 723 204 232 442 657 298 193 108 314 246
1396 823 246 502 738 547 502 185 399 679 272
2658 396 90 177 30 312 447 420 71 462 12 786 501 240 36 710 567 13 234 287 729
3069 295 853 902 985 329 478 69 216 106 455 873 126 840 436
8476 555 175 843 678 823 238 547 499 182 399 669 71
4878 353 775 950 527 914 549 542 1221 591 743
9415 156 1344 282 868 694 302 89 1153 243 44
7070 499 68 639 544 308 618 261 857 258 289
6139 556 751 132 732 484 423 831 224 493 212
7217 387 301 656 249 51 275 913 448 220 515
6787 925 556 318 117 152 445 614 312 133 255
9645 78 258 579 474 29 187 712 234 203 329
9636 723 579 181 108 314 739 389 240 343 736 827 823
921 331 106 737 169 643 1179 912 740 27 654 2 244 545 113
7657 555 337 783 625 593 660 669 245 757 762 925 99 318 426
3181 555 566 783 357 686 169 693 420
1933 120 822 132 539 688 258 918 714 476 700
9666 975 33 320 721 859 808 146 74 662 568 291 413
1770 683 128 792 335 321 231 161 260 66 693 419 361 999 87 829 118 994 393 231 170
8673 966 497 36 67 165 73 881 272 773 335 455 132 544 296 73 418 121 324
3730 606 673 652 338 798 567 498 787 213 665
828 499 905 949 767 265 385 308 545
632 15 762 192 329 579 457 712 683 953 403
1092 883 921 317 46 259 1080 422 499 626 142
331 727 213 267 619 96 304 528 136 460 444 857 135
2899 127 685 124 241 207 187 247 185 782 120 924 265 228 79 81 557
9072 336 297 925 261 70 176 614 766 127 619 124 834 206 187
1007 237 430 608 739 411 389 980 569 721 209
132 100 692 600 43 621 261 320 639 975 376
8479 903 499 408 454 434 360 977 707 242 598 910 237
5263 732 868 411 286 726 397 371 250 731 79 605 45 237 1047
7816 783 431 382 83 593 387 686 653 289 671
5785 201 665 122 665 71 175 798 54 498 92 819 263 450 352 751 224 810 49
7094 606 36 652 380 961 301 170 433 99 684 806 123 438 586
7811 216 99 796 71 907 763 956 455 316 70 115 957
5046 681 219 117 270 316 539 907 221 215 99
78 701 772 601 371 67 363 738 263 808 499 178 348
1763 603 299 836 562 889 18 58 635 516 159 488 86
7909 70 300 614 704 169 691 636 103 984 752 115 742
2706 958 989 387 349 51 438 190 515 457 479
1357 845 448 874 262 490 226 842 150
7857 523 257 255 115 281 378 6 1025 493 1034
7946 108 363 611 302 152 411 133 325 141 664 984 75 52 191
2555 870 676 403 795 305 453 856 165 722 428
5368 792 149 321 391 795 820 161 489 76 84
9564 531 572 654 161 592 1237 801 16 327 329 700 890
6083 376 416 602 508 690 489 839 324
7509 262 524 127 393 924 587 206 79 576 503
17 743 691 836 167 889 820 125 487 488 292
7949 674 490 88 139 851 448 887 168 937 767 50 451
8097 474 149 8 51 292 435 696 464 419 303 829 306 199 170 963 269 988 484 835 159 95 153 30 509
2316 181 442 314 694 657 275 507 224
7102 260 439 853 398 906 450 268 56 448 15 349 218 118 83 816 172 431 282
2315 796 617 755 802 907 379 117 399
9083 871 136 444 225 718 706 551 494 389 583 368 606 965 360 322 37 989 220
1101 142 565 894 333 175 75 326 54 248 377 288 571 285 692
1210 211 1047 208 430 411 501 371 133 608 681
1231 386 93 4 456 385 699 536 757 937 100 430 244 969 228
7631 293 78 179 706 325 277 527 515 136 614 98 490 558 108
4666 396 338 717 262 550 126 183 36 9 317 436 178 287 88
2128 432 180 822 660 123 405 765 358 943 483 52 213 351 70
1032 210 598 910 344 977 507 521 614 7 378 915 192 844 254 944 127
3799 982 93 156 26 694 1085 187 44 328 227 351 1160 3 373
1851 677 1658 393 78 960 787 137 1158
1312 849 60 743 1699 708 214 562 1471 727 152
1198 86 1619 467 1441
4585 892 724 418 273 830 436 782 14 81 250 206 185
8587 894 133 236 377 285 497 934 373 607 744 973 192
7884 270 879 854 668 175 164 804 836 552 920
9957 632 452 486 835 762 866 995 290
1395 446 83 903 184 68 515 48 610 10 175 179 132 384 918 365 228
5373 709 30 77 155 671 228 759 1014 413 555 846 525
7021 623 685 42 747 421 350 447 823 813 344
2211 927 755 590 451 60 127 945 683 548 448
2065 556 823 120 698 523 1149 493 65 222 115
7194 160 151 362 326 599 479 650 50 597 547 507 106
6548 506 189 890 848 41 781 467 205 905 650
3319 639 193 188 289 577 1052 109 161 261 478 755 610 869 321
44 587 1103 204 1080 317 55 901 715 953 67 422 75
909 373 271 174 5 705 1154 448 1002 816 271 233 439
5328 499 209 768 263 188 857 258 478 46 437 869 484 5 467
4875 138 236 348 371 70 62 576 19 54 548 33 117 127 322 228 524
9226 47 377 429 905 779 374 38 723
1008 80 477 609 259 838 368 303 372 574 10 850 467
3596 543 1193 202 385 949 0 639 553 308 346 577 423
1036 921 727 845 331 973 151 1 39 508 947 377 74
8069 488 771 560 118 125 324 205 619 96 685 727 268
3251 174 55 906 427 448 471 22 595 233 56 118 112 65 349
2313 787 404 730 217 982 275 328 440 1000 71 957 90 482 841
646 378 761 142 959 249 879 175 672
2807 983 216 533 652 590 525 406 168 600 228
8429 781 1351 453 489 26 1539 531 83 327 293
7949 868 520 305 481 34 147 43 284 722 134 466 843 866 17
4239 519 641 698 161 315 801 375 207 934 994
4174 88 341 851 540 87 839 278 162 50 401
2737 163 381 106 571 902 560 371 798 738 393 67 130
9493 131 547 510 602 415 405 338 195 58 111 516 450 458 754 820 217
1824 598 175 88 1243 87 155 275 162 929 952 778 417 618 303 53 571 969 193
9368 100 390 600 368 307 59 64 247 992 248 524 456
1526 487 852 749 966 709 137 35 1264
7193 646 324 546 616 6 249 222 378 493 136 745 216
1971 872 367 875 485 717 940 758 136 550 21 156 71 168 435 786 53 295 604 329 96 187 868 89 71
290 57 1284 523 175 941 218 480 1205 897 775 93 133 357 194 807 42
9961 471 514 407 478 479 1051 352 997 789 140
4379 175 13 236 692 699 612 248 497 973 282
6661 472 907 642 835 680 284 594 487 959 38 451 592 697 62 899 42 478 42
5890 183 729 9 530 240 88 13 582
558 894 365 236 571 823 412 979 380 326 534 502 89
9696 382 601 212 671 686 129 580 135 333 1014
4314 592 1081 486 1122 721 291 700 294 980 738
1351 826 1143 775 786 198 413 662 596 859 278
4068 865 432 795 124 8 986 696 947 231 435
7484 398 939 525 495 527 542 239 78 325 669 365 237
6459 150 1026 705 672 719 622 373 737
9898 872 763 282 604 935 757 329 511 873 73 184 853
7267 666 294 619 64 637 233 110 472 583 72 304 313 641 354 858 556
6251 520 1414 446 292 649 263 408 121 434 1215 534 622
3440 731 154 570 601 605 435 322 358 756 329
9409 716 453 928 621 15 769
5667 372 525 673 1543 741 1150 40 196
1192 160 43 725 286 882 261 926 911 597 553 596 74 424 538
5731 332 186 660 446 772 752 922 495 535 466 997 346
7850 557 855 609 1149 838 1535 264 372
2958 296 313 752 245 583 457 641 336
2417 870 618 437 211 224 453 868 360 416 275 722 339 273 481
5523 946 928 557 411 865 540 702 427 609 1002 916 723
7215 983 360 600 282 895 611 279 59 927 633 659 189 524 749
284 499 293 202 545 639 280 188 618 265 346
7452 374 174 964 493 861 285 17 496 884 262 506 610
2356 616 449 114 340 178 473 83 547 893 802 704 27 680 465 594 2
4675 517 663 757 255 547 81 679 202 669 771
2563 581 640 839 458 420 824 345 630 183 447 13 83
1778 625 743 541 873 119 1790 562 408
7652 362 190 232 694 181 246 343 295 193 739 507 65
3530 375 560 274 801 319 1061 934 134 607 364 693 266 686 46
868 943 133 765 377 681 523 216 539 956 339 417 246 215 70
6676 750 652 587 353 38 558 204 46 883 260 728 708 779 24 404 292 259 55 610 125
7074 195 426 757 290 925 588 108 531 133 499 191 117
7719 333 823 414 205 658 705 315 1061 375 27 686 370
7791 209 639 621 525 198 721 146 37 975 21
5140 225 391 792 516 199 231 161 573
8104 718 0 726 545 298 358 605 221 965 820 235 37 756 348
6751 648 438 492 71 75 795 721 785 486 392 867 578
8121 111 987 456 422 947 166 399 650 505 337 816 388 793 356 535 0
6142 293 669 10 208 179 306 365 286 239 277
894 378 787 142 283 236 54 979 615 288 534 137 163
8579 272 293 531 514 453 896 226 329 143 209 394 153 700 988 483 73
3999 787 345 982 287 694 566 243 227 269 440 957 322
4012 550 1061 282 96 295 511 494 579 69 659 436 20 184 478
5415 415 737 338 658 425 628 145 79
5747 424 225 596 261 435 40 653 586 441 435 585 112 627 31 862 797 194 106 737 914 643 273
2680 302 186 660 292 55 803 772 565 918 171 644 407
2935 289 1014 580 185 414 816 686 107 319 823
3205 733 799 147 620 577 832 104 370
8173 933 87 144 603 443 92 628 415 995 778 632 166
7889 925 271 207 297 593 71 580 1175 892 561 782 380 124 192
3908 79 496 162 859 655 813 464 441
6469 330 658 145 786 603 32 415 153 516 633 277 195
5836 587 1109 931 516 706 583 342 429 579 144
8584 160 523 667 320 599 88 898 578 478 159 959 500
8033 170 614 158 175 990 468 99 144 595 231 513 11 459 85 409 335
6978 931 338 339 429 706 902 616 136 491 755
5156 667 256 362 562 898 301 837 319 314 295 389 506 193 736 989 145
1523 962 406 891 1450 406 56 705 202 150 77 60 33 945 1303 23 886
538 105 428 668 919 312 630 581 192 494 374 13 1005
8822 685 118 760 1154 998 1072 430 483 969 6
5631 933 505 372 10 790 917 468 613 356 460 11 648 620 398 673 74
3668 138 432 571 255 791 189 262 371 33 217
2042 233 218 816 916 431 724 947 781 84 118
5670 381 58 852 260 139 497 140 514
9425 151 311 982 358 243 1160 241 70 822 501 3 140 765 766
9691 407 179 284 997 104 112 173 799 789 476 568 28
941 186 775 914 1722 950 1679
4320 549 363 544 265 383 30 909 37 12 499 73 184
131 854 1148 845 164 921 353 490 914 1 1534
194 790 1114 347 460 468 786 670 1083
6066 283 194 794 386 807 918 93 686
5479 465 392 637 295 719 543 645 410
1484 19 805 712 339 29 493 103 859 748 537 569 133
3384 950 81 442 180 527 478 542 834 457 44 28 707 879 518
9511 165 569 97 1145 951 1054 455 455 121 352
786 599 452 898 100 343 562 256 326 507 286 314 190
2184 504 318 463 1101 367 182 910 780 7 465
8548 410 965 754 807 855 264
4300 293 237 68 348 525 212 10 398 251 228 325 286
6743 952 17 126 295 880 452 706 460 470 521 728 12
3732 504 808 363 182 139 14 154 409 521 14 7 646 915 287
2222 817 1029 723 28 388 669 687 368 551 330 389 230 827 1073 235 606
8155 376 613 420 267 462 282 43 142 515 186 981 222 567 431
2812 781 897 453 334 744 1034 566 404 687 88
1259 732 955 211 250 90 139 601 126 237 133 608 267 276 798 902 368 67 618
2133 40 621 620 869 300 525 673 467 347 10
7645 294 737 380 772 465 118 705 589 816 403 719 43 260 271
8121 884 583 917 602 309 174 861 565
4505 658 390 698 797 171 329 155 137 315 560 319 27 274 207
3275 24 314 509 281 34 382 690 395 420 247 839 364 43 168 227 416 369 613
5944 266 74 508 182 911 1682 1 1786 119 227
7107 326 787 137 1275 142 613 270 761
2348 172 342 519 587 911 661 698 109 625 116 119 679
9238 111 868 619 367 465 675 816 428 373 772
8811 504 145 967 1175 32 838 140 309 139 304 350 58
896 580 765 593 743 289 601 212 83
3745 526 372 742 218 876 343 30 8 95 158 554 915 549 548 12 24 354 30
5667 903 243 179 615 251 918 635 607 977 965 739 195 136 54
2128 454 321 4 359 238 699 421 557 430 1072
9501 674 662 937 260 238 93 4 569 678 297 102 114
5914 958 296 772 743 918 303 511 180 220 349 936 404 997 225 656 412 190 301
5373 817 1295 781 629 744 1219 368 669 687 559
515 989 993 343 506 827 904 193 240 235 583 368 230
2662 514 426 27 660 940 452 912 261
8189 613 180 736 874 759 848 900 664 589 422
6395 697 717 412 323 908 90 83 247 748 706 563 229
6843 735 906 244 78 677 945 18 917 960 361
9775 453 393 143 903 327 153 805 166 566 212 395 364 551 78
2911 805 316 566 300 394 364
3939 183 90 786 925 717 809 240 338
8376 864 457 652 483 498 207 885 317 433 780 809 775
4146 950 662 176 1187 525 511 527 686 293 939
4837 111 382 619 183 324 650 505 668 878 978 665 309 685 38
4621 62 534 438 42 513 716 833 478 415 543 510 351 771 130
7850 177 320 968 325 800 408 515 276 567 36 710 326 682 37 426 570
238 163 534 72 445 808 222 860 153 797 171 647 348
9013 870 909 954 260 63 1414 224 795 856 112
2783 317 292 617 301 610 409 728 263
8615 116 233 987 605 477 510
8189 533 335 271 168 146 23 662 422 962 1169 590 726 945 398 344 56
7021 747 502 784 265 471 149 147 567 284 478 352 179 104 605
2559 434 312 297 121 534 565 210 454 910 634 633 187
5558 341 335 582 202 459 347 513 333
783 570 357 364 965 756 605 754 112 989 596 855 350
9645 211 286 586 265 877 882 726 208 208 389 237 501 980 532
9310 563 479 392 323 83 490 616 467
623 77 500 252 555 500 725 846 328
4762 803 1007 580 53 333 816 96 339 319 205 658 465
5788 440 123 330 737 425 148 400 543 833 275 510 319 338 153 277 405
7393 437 785 868 459 305 275 34 346
1939 52 45 943 777 956 616 316 246 930 248
1602 724 659 473 712 892 122 785 335 247 273 830 434
8399 792 752 696 778 199 361 231 303
2533 312 824 376 247 839 119 462 688 183 71 369 267
7831 623 13 253 350 454 831 834 224 559 275 447 695 385 557 976 23 978 493 430 128
4862 118 482 204 499 626 188 901 213 84 243 259 75
4379 913 298 656 480 522 553 618 279 591 436
6748 301 538 882 931 596 672 435 289 331 225
5045 849 752 440 1474 330 628 145 289 415 148
109 800 161 401 570 466 203 1000 252 682 636 714 519
5051 17 494 144 482 506 297 904 315 41 492 565 441 818 0
9400 651 679 638 988 665 408 760 398 969 233
567 733 267 750 88 543 1096 263 905 38 15 47 331
3860 385 1072 799 607 976 948 421 128 238 244 346 483 998 14 969 357
8444 853 484 349 724 233 282 84 531
1423 828 484 530 74 469 299 241 180 822 134 123 340
327 652 386 885 130 397 780 806 745
826 446 545 903 999 408 312 297 1215 210 360
4919 472 57 899 1063 692 223 478 109 882 643 424 289 653 1545 331 40
9955 550 418 329 20 9 369 494 290 240 178
4455 870 1307 509 1739 34 411 416 785 305 211
7532 961 542 170 127 214 586 400 42 62 295 513 412
3681 524 160 819 614 751 415 659 412
8703 849 310 753 1273 833 614 425 1474 415 123
6186 899 70 745 244 653 1378 627 1310 331 435
1338 98 760 527 1007 360 180 28 910 640 49
9453 628 414 335 92 632 615 904 290
9622 871 229 235 225 932 260 718 386
9585 72 607 860 198 91 384 101 486 808 166
1355 520 723 297 292 434 545 903 753 48 2009 251 83
8128 253 823 559 927 421 695 475 54 36 568 813 450
5786 174 470 260 1002 906 538 268 471 233 15
7623 78 360 491 673 29 440 972 393 563 192 616 336
7157 122 448 213 352 130 362 485 235 810 758
6191 899 698 908 779 697 739 286 592
3478 485 896 574 70 59 746 76 857
4200 781 396 272 489 370 334 327 896 566 416 394 393
9000 4 224 678 546 834 193 421 831 385 321
6255 165 368 361 455 200 132 121 620
7436 324 422 947 792 793 846 886 485
124 958 657 360 44 28 881 51 382 220 479 879 742
8273 58 685 770 914 488 170 820 119 277 754
4498 595 434 341 85 582 84 771 269 409 347
1125 205 444 528 418 857 354
3198 611 423 469 406 52 84 123 465
3875 420 688 710 68 183 12 981 561 369 282
2951 504 155 967 1222 649 178 633 671 363 1101 910 254
8734 337 441 162 112 746 26 815 64 919 1142 655 387 16 750
4634 666 546 380 675 619 308 358 392 637 3 719 428 373 118
6214 43 203 273 843 800 525 866 378 426 203 714 699
9112 86 356 246 1441 890 595 257 205 529 259 905 1072
8752 933 507 347 613 356 786 85 492 670 178 964 233
112 530 479 675 158 21 222 611 142 461 406 432 299 123 16
9805 952 285 366 521 617 356 537 224 728 673
8319 784 48 629 1500 891 154 407 149 962 788 479 550 284 514
9753 899 1081 286 907 478 1283 435 57
4060 724 632 803 1089 418 712 892 222 96 391
4158 720 679 702 162 153 409 846 252 8 511 835 327 107 677 231 149
92 966 451 447 54 36 555 813 675 881 99 97 541
9422 132 99 484 274 19 563 928 206 688 359 197 700 644 397
3662 26 1401 405 510 116 337 987 882
2526 472 1283 160 120 340 159 959 583 286 42 692 1049 435 109 725 31
211 471 550 962 620 684 682 284 1051 789 87
3957 523 766 283 1205 635 6 939 743 93 411 136 340 39 391
8391 894 415 607 1027 843 510 693 652
1541 730 25 672 539 1000 324 715 492 269 841
5028 871 187 143 799 327 73 700 172 586 572 932 375 877 267 551 83
5182 189 423 132 636 831 645 103 978 476 274 19 335
7618 122 754 734 2 130 741 450 235 59 227 574 152 452 896
9487 592 90 761 73 290 1122 75 28 323 392 250 835 632 468 721 354 762 59
3141 709 581 613 55 749 927 280 852
6257 836 530 229 292 58 57 218 86 458 170 267 771 560 65 770 525 125 318
9595 631 928 11 437 105 426 602 386 581 973 690 144
9567 854 444 355 914 845 71 874 270 842 78 221 226
3821 931 194 342 755 449 673 616 403 78 207
124 648 871 668 425 69 780 323 71 494 645 867 128
5873 556 952 189 212 255 65 831 202 281 136 222 1034 745 438
7660 668 14 492 645 345 374 329 579 69 143 9 114 436 290 13 503
4940 511 303 778 758 936 151 53 621 618 225
1728 996 120 74 1547 663 970 564 1113
5112 20 379 664 215 595 665 990 292 775 438
8260 864 591 201 787 652 573 213 92 44 165 397 207 810 931
2279 985 424 707 943 501 312 935 164 768 406 949 49 202 905 261 209 188 68 308 293
3512 77 15 946 735 557 100 413 725 702 369 846 220
7499 985 1227 952 6 499 312 949 732 537 528 561 338
4150 823 316 979 474 288 89 960 909 679 215 182 738
1100 975 745 992 293 622 653 99 14
2108 367 808 363 318 463 155 967 456 381 145 139 440
2172 324 337 922 749 399 668 535 932 665 545 61 224
7368 17 270 309 610 884 12 427 297 41 182 890 637 257 189
2339 362 286 232 224 314 65 650 296 657 189 256 106
9313 973 489 172 855 266 947 911 31 377 182
9666 437 1739 24 429 741 21 713 1522 34 380 376 281
1839 920 767 400 351 131 16 595 322 771 738 415 319 277 602
7966 936 602 387 180 656 751 618 265 495 303
6782 532 690 742 866 919 1028 858 264 999 300 963 338 30 131 655 79
6735 170 337 400 716 438 412 341 11 582 169 771 289 409 333
6757 390 426 912 580 776 529 737 130 940 247
6126 369 186 981 300 567 582 710 183 401 276
1138 603 324 338 633 58 456 218 159 277 450
5394 82 886 679 600 757 492 311 663
5842 135 568 955 364 113 812 730 59 774 541 14 297
6408 172 772 379 587 934 28 274 641 698 708
4275 649 2251 446 723 297 1414
4247 7 560 367 14 915 797 242 614
31 423 553 591 580 51 622 913 198 542 116
2302 120 573 57 8 958 154 939 741 28 251 255 1149 480 766 283 175 6 12 222 257
3579 307 749 64 556 279 456 439 160 659 222 819 194
3296 398 511 293 495 176 943 68 529 48 1388 365 212
4348 559 291 112 589 978 681 742 743 876 184 383 372
4534 950 171 398 686 293 542 239 515 442 1007 98 34 360 478
5965 205 136 460 418 857 14 763 503 727 20 171 25 155 254
5714 923 633 467 259 987 779 94 289 180 12 905 1420
9957 135 889 113 123 828 624 167 551 432 74 469 479 21 362
5951 272 83 26 651 654 947 226 572 327 514 116 58
962 742 93 512 690 942 860 858 340 641 639 970 117
7797 621 240 146 615 406 335 271 652 600 156
1356 649 85 408 565 297 622 633 607
5812 324 0 793 704 660 530 922 30 302 466 505 932
7539 937 716 238 757 969 970
9813 952 882 501 528 617 441 470 224 561 541
9455 109 848 46 315 681 148 869 714
7159 724 698 820 687 560 474 770 14
3343 897 1108 767 70 788 542 941 15 776 197 940 985 807 24 624 380
2787 313 873 763 376 562 1450 625 661
5867 950 261 360 834 186 1221 591 359 51 294 522 116 879 673
2382 733 369 429 1096 577 62 265 1193 949 181 47 114
2021 773 376 200 296 549 116 73 433 354 265
3288 32 1036 852 467 974 568 676 207 194 113 27 245 2 1534
2159 129 234 281 616 646 268 627 320 745 830
8277 182 502 679 543 185 499 311 81 669 343
5437 927 341 60 636 254 448 575 728
7671 876 283 773 481 383 548 544 116 354 363
2716 717 741 329 1061 282 21 240 126 436 418
2004 871 493 143 412 483 83 805 271 687 377 235 494 368 330 394 78
1706 249 920 804 98 854 712 842 491 845 56
8079 753 373 833 357 821 339 62 470
6645 988 697 30 700 95 38 383 915
6935 195 337 669 588 185 175 783 197 196 566 843 224 693 90
1185 493 952 189 751 255 823 132 285 120 165
8428 77 1491 946 1209 303 855 609 2 500 100 306 411
4714 239 108 136 618 39 302 98 472 640 286
6669 447 927 421 275 978 761 36 151 526 291 112 629 876 112
7605 488 65 539 474 724 620 267 118 96 327 770 990
3532 949 388 501 338 617 104 537 541 47 594
6359 313 408 245 1471 763 185 727 510 541 1450
4844 412 479 392 229 748 165 449 192 972 745 616 215
401 817 407 496 1113 74 282 663 217 723 1365 181 446
5551 573 415 427 441 761 14 904 284 56 425 818 462 801 114
3457 453 416 370 404 805 103 394 212 395 300 687 166
3413 43 342 800 673 515 582 369 431 401 36
3390 104 730 588 362 173 206 25 628 352 28
4728 908 1181 831 1278 899 4 359 133 103 400 748 675 745 236
5937 298 601 731 348 410 357 756 386 754 11 90 1163
5439 348 255 791 179 33 286 769 678 630 465 148 28 789 143
7040 793 217 660 91 55 341 716 686 886 782 15 309
8433 592 390 801 714 565 415 761 918
4343 838 105 264 10 971 688 49 79 130 456 612 418 485 152 850 545 452 70 76 196
3065 895 514 746 848 927 259 60 346 548 728 703 267
1913 664 569 138 646 826 339 262 19 924 324 228 503 802 456
213 733 254 543 62 334 832 639 275 265 423 104 441 588 104 755 266 258 1052
5877 168 421 957 430 89 256 682 445
9011 587 69 931 97 339 144 192 474 78 445 953 670 203 457
6941 336 1175 382 765 593 286 289 135 803 428 892 48 333 185 414 53
8522 105 84 312 640 345 192 602 428 489 973 839 145
5298 459 84 771 258 409 202 513 169
3941 296 72 110 735 752 369 304 457 998 75 799 359
3730 993 586 729 497 91 586 808 271 101 348
5219 129 564 767 684 646 379 627 199 737 421 331 112
3172 932 123 483 572 718 310 877 876 726 651 411 265
1985 728 637 317 353 706 115 953 478 579 69 339 1109 259 1103
9772 577 104 104 651 755 433 25 199 847 493 796 572 568 362
497 391 422 896 662 900 232 121 137 153 846 759 88 909 262 73 511 107 105
6856 983 193 271 525 406 726 927 25 945 489 254 451
8697 186 743 914 166 929 1290 423 436 618 391 542 359 522 580
662 573 390 226 1237 801 83 761 578 486 90 290 1081 700 48
564 336 71 783 79 195 660 925 786 382 743 212 387 580 286
7095 642 324 310 2 893 676 680 547 286 487
6355 20 205 497 665 920 135 510 322 990 92 341 231 771 141 459 434
4879 301 74 926 813 424 672 634 690 862 665 331 261
3342 160 255 663 318 301 553 926 425 650 552 657 264 256 547
7583 863 1749 929 451 278 175 87 1816
2088 160 547 340 88 362 452 898 595 256 479
7104 983 535 209 43 100 299 533 156 621 223 271 228 307 282 279 368
6251 701 318 90 980 371 126 67 601 217 371
6341 581 428 489 386 690 112 227 508 839 232
1650 849 830 145 202 338 32 889 812 218 299 516 324
310 41 2 818 411 128 375 94 256 180 231 905 359
3124 211 45 726 773 298 435 731 788 322 221
5970 201 673 652 697 798 416 848 832 214 36 99 414 622 130
5325 894 37 248 744 481 1027 315 364 934 585 693 111
5623 648 1033 208 739 237 681 721 196 902 367 371 267
6700 557 2 306 1002 80 587 303 1149 264 259 916 83
3826 317 125 617 58 779 469 404 409
1883 675 656 108 176 223 302 469 142 461 423 52 468
4913 49 1451 864 588 130 205 44 1163 574 418
8078 487 55 709 742 749 1368 759 137 391 180 736 1566
2849 925 608 70 279 152 111 191 312 207 766 219 704 984 448
7891 82 955 18 1182 113 424 167 470
2549 310 449 114 186 412 467 83 508 342 136 449 336 491 403 563 215 126 72 45 548 706 15
5663 610 58 404 301 470 356 537 441 728 179 561 104 47 167 779 154
767 511 265 929 315 495 225 278 303 53 693 423 279 656 186 591 391
2125 666 814 111 226 380 367 465 308 296 64 399 183 878 501 110 728
1380 372 869 347 398 631 807 11 441 40 261
2960 209 261 533 240 146 604 320 525 600 223
2417 606 130 503 653 992 139 848 679 99 471
1975 740 741 42 975 832 425 253 685 421 13 834 630
4167 540 380 154 256 915 488 794 599 807 46 940 80 844 604
8018 379 116 313 743 119 150 763 290 541 661 698 541
6473 22 180 65 314 118 11 204 142 883 379 422 188
3972 129 922 546 320 745 197 441 1310 585 199 331 31
9398 144 305 443 414 904 450 335 415
5288 695 320 784 582 780 245 891 657 471 1500 174 277
2062 33 439 571 465 991 359 148 422 54 13
5127 11 844 620 807 489 928 40 235 690 117
226 761 37 443 615 335 166 904 297 250 452 995 315 486 468
1633 649 1592 463 671 408 187 534 607 910 973
3109 926 379 948 761 596 690 92 603 862 715 2 156
905 93 746 739 775 384 607 136 1181 480 6
6406 70 974 169 872 219 103 991 360 54 375 847 453
5920 666 708 465 3 358 295 296 233 815 379 858 593 645 436
2485 778 867 428 988 651 7 164 279 969 592
3886 308 280 188 544 265 553 577 275 258 193
7983 939 813 39 310 558 286 442 49 98 588 28 548
6486 296 354 752 325 304 336 532 639 858 469 970 58
7719 959 989 711 912 286 835 893 79 594 324
5293 862 893 194 1179 331 273 2 693
1255 928 258 332 407 55 340 688 511 918 283 476 397
6559 358 410 719 169 150 513 23 72 815 652 637 436 703 296
7979 129 492 767 36 941 579 281 324 546 268 585 379 6 190
5095 402 348 860 151 777 75 797 15 766 322 840 27 812 130
7214 721 458 608 1033 492 871 69 501 323 438 902 130
9234 520 2251 297 263 463 178 633 1592 534 85
9724 657 406 597 552 507 296 256 50
346 428 679 638 7 665 346 841 317 61 545 164 149
7728 606 697 201 338 498 573 397 483 214 380 806 526 433 386
5836 899 135 435 1545 441 1378 331 586
1147 531 947 226 161 801 922 116 593
7511 79 154 683 81 337 813 919 245 464 387 66 351 999 43 994 753 512 79
6945 511 751 387 412 423 480 618 186 190 249 913 180
7260 663 506 232 275 181 298 650 406 597 264 507 189
2426 414 465 96 405 857 297 319 705 171 383 375 390
4869 895 1062 307 189 734 300 79 165 71 647 439 412 524 222 751 96
640 572 91 793 627 332 292 535 530 302 446 55 320
4896 875 323 707 387 872 545 935 417
4842 826 17 198 568 146 730 406 422 291 596 769 101 684 952 962 143
5109 496 970 996 389 657 506 597 318 564 217 926 60 181 765
8427 20 966 497 215 802 120 775 416 576 569 826 534
2239 505 545 399 309 428 408 61 31 651 346 685 671 760 486
7514 637 708 465 546 619 814 296 294
6464 340 320 959 519 837 985 898 561 343 256
1585 105 539 345 919 494 14 492 425 867 729
4271 555 588 195 245 757 400 547 343 185 71 311 771
9110 356 1083 917 803 85 513 468 178 861 779
9427 709 566 77 1081 35 868 252 228
4457 730 329 14 488 482 539 159 213 715 180 866 386
6710 372 467 790 1734 347 74 300 1543
5077 691 278 230 490 887 9 689 487 937 255 386 662 102 316
6366 21 415 134 454 108 438 611 656 469 158
6179 996 543 948 714 545 207 92 662 2 1478
1881 735 887 244 1658 393 945
8505 386 297 102 315 454 546 4 237 834 345
9005 82 547 18 70 517 600 502 215 960 44 547 543 182 272 311 202
4422 310 465 697 663 286 284 83 354 594 547
7190 109 615 46 243 538 148 765 193 117 404 216 219 316 523
641 168 296 968 175 578 445 401 37 1000 218 426 636 957 329
1571 734 279 79 984 655 81 59 151 161 439 199 128 66 812
8090 662 952 962 777 769 972 479 682 789 375
6932 399 38 878 558 665 671 346 118 760 459 998 41
1094 783 277 196 169 212 653 289 129 333 107 315 46 319 370 693 849
2254 744 437 388 559 370 88 805 593 566 166 368 368 551 377
8183 918 183 197 258 644 511 476 359
2075 691 1509 674 487 887 1757
719 631 117 24 906 40 542 376 395 602 112 489 144 227 489
3821 740 1439 832 233 689 1509 674 278 102 45
6372 435 223 882 733 478 1049 725 844
8611 481 652 555 90 196 420 843 486 315 266 607 111 686 849
6997 187 302 89 631 243 1085 957 404 328 566
7486 825 484 629 320 780 809 149 81 784 588
3218 792 17 795 380 292 947 419 778 231 464
437 680 663 451 739 392 717 908 217 286 62 83 132
9472 519 708 379 109 763 26 625 541 274 161 155 368 375 797
7168 175 660 285 612 804 478 973 702
965 226 890 592 48 327 988 290 294 483 172 877 1024 980 224
4117 754 243 711 47 157 1004 90 504 601 318 217 772 178 204
418 946 286 500 369 306 427 720 276 865 566 846 508 474 162
3071 746 183 60 289 23 557 575 267 815 442 16 612 645 296
5622 310 27 893 554 711 747 178 418 157 867
358 294 672 373 589 174 40 260 1154 891 873 150 125 344 202
3545 587 115 339 583 342 902 126 927 616 15 728 337 366 460
9073 661 387 875 358 499 943 935 563 768 122 758 642
3671 743 363 125 457 245 214 727 563
5979 487 581 280 137 613 742 35 161 671 566 759 820 252 30
2049 177 495 462 68 183 567 515 183 981 648 401 326
5936 642 912 893 352 704 747 959 75 701 47 754 797 157 383
502 359 339 19 234 15 348 928 160 192 234 29 908 203 683
2602 24 687 741 1462 509 1522
1465 466 699 866 318 1000 574 426 519 715 10
1503 672 180 866 516 1000 543 714 10 482 492
7671 299 453 572 686 928 326 15 48 55 249
3761 396 809 282 940 786 83 550 741 240 262
9683 444 386 586 310 932 237 235 706 322 0 726 746
4217 294 622 465 428 373 43 358 543 150 172 645 169
8501 865 463 702 276 8 540 474 679
8135 648 458 290 291 323 785 486 354 208 209 608 196 980 812
9 224 428 305 339 856 357 273 134 159 559 866 675
881 817 1536 564 1365 368 28 827 291 193 579 181 204
2462 539 698 418 659 473 632 96 52 560 620 785 150 820 5
8005 160 1119 692 844 478 31 301 286 882 278
9150 211 397 586 651 718 746 411 208 322 545 605 773
7128 125 137 708 563 245 152 205 213 267 268 763 378 562 510 528 20
1482 587 637 706 337 366 12 317 708 617 179 404 263 470 673
4405 114 163 764 736 952 219 993 386 45 92 101 417 584 497
439 135 806 518 59 982 421 269 217 482 25 672 329 14 639
852 732 943 211 79 298 154 90 138 570 348 605 788
2537 211 868 371 955 731 943 90 55
3563 747 503 814 54 986 327 429 267 543 369 750 478 147 21 577 254 334 799
8095 122 818 71 757 485 2 79 552 683 279 659 300 59 791
2014 677 887 811 2040 393 906 18 919 113 23
6738 613 1566 391 874 951 1293 900 178
9112 767 193 788 173 585 421 514 130 776 494 194 169 331 914 912 204
3169 217 263 276 393 163 458 808 537 67 790
46 635 775 384 195 977 634 93 176 944 870
3003 42 417 691 1439 832 551 623 741
8426 300 1150 24 271 40 651 509 21 713 1462
8674 978 181 526 743 532 93 30 800 512 866 942 561 383 218
8966 849 395 245 1699 889 514 229 691 708 363 125 159
6094 781 109 388 1219 370 1034 687 437
3630 831 1229 899 291 569 236 281 216 546 830 493 438 441 244 627 197
6816 895 49 162 978 703 183 575 848 16 792 464 26
9260 733 503 147 229 814 412 407 502 784 498
7045 392 706 908 406 359 537 563 165 972 508 29 243 569 675
558 487 927 280 966 613 1368
1940 825 268 986 536 733 478 149 788 38 911 317 652 429 88 883 125
2164 71 612 213 224 439 415 819 306 659 96
4425 799 160 583 369 970 687 304 245 641 325
1073 440 1273 833 325 37 1216 821 452 553 373
2376 959 222 570 11 701 243 711 797 90 128 364 807 410 112 855 590
8440 577 266 588 433 109 559 258 610 234 802 796 205 117 88
5665 298 329 570 386 410 605 965 304 322 348 989 79
1312 82 14 517 492 195 762 134 788 108 700 669 400 311 255 318 290
1221 875 631 707 642 282 136 156 306 768 896 31 212
8525 709 820 252 1014 613 137 391 848 153 617 846 201 589 88
1417 428 398 665 486 346 1154 685 459 969 838
9797 573 918 592 578 565 14 904 1057 486 73 632 37
7275 166 715 75 623 938 123 250 866 486 59 995 143
6255 727 378 528 503 562 185 541 376 155 500 625 290 698 26
2684 729 736 952 590 45 558 880 195
2124 241 358 351 766 46 372 3 660 943 801 681 193 316 377
5359 840 129 873 293 647 322 812 128
6973 540 70 788 904 941 730 737 193 585 684 646 36
9491 707 122 758 896 499 406 261 263 31 231 888 16 5 946
4477 791 619 826 406 662 101 571 678 684 972 789 325
5713 458 914 488 525 539 14 820 359 560 990
7174 400 130 510 738 595 141 582 258 459 269 513 289
3285 332 565 918 804 387 743 997 247 302 752
1736 36 333 876 496 200 335 544 376 549 481
8281 955 394 518 541 954 154 63 409 856 190 14 633 159 369
1549 497 438 664 416 826 70 990 522 291 786 859 231
5548 788 713 540 197 514 529 737 494 940 284
125 985 509 935 320 860 623 812 604 647 75
7226 495 758 936 109 164 511 638 867 969 68 278 417 53 262
2079 263 374 38 314 317 24 617 154 610 469 47 167
7176 695 809 629 245 149 600 22 15 174 1111
2467 388 629 272 1351 453 396 26 298 987 215 370 897 744 109
8472 336 380 892 557 124 674 247 14 206 120
998 555 197 195 625 593 79 196 357 686 277 212 431
9835 747 498 814 426 825 59 986 64 695 588 629 582 407 265 471 48
8855 724 150 820 234 418 335 802 739 830 321 81 427
5912 396 925 717 83 177 426 168 504 968 417 282 53 183 501
2699 269 404 328 345 982 319
8794 767 904 776 713 737 173 540 542
5065 769 325 571 143 684 375 284 140 479 87 148 844 173 540 847 64 352 476
8662 347 917 356 1114 673 1734
3348 138 497 348 189 571 179 826 761 769 619
1774 225 149 696 17 419 752 199 335 321 516 795 193
6821 324 356 456 846 572 217 535 704 660 627 886 337
685 807 155 357 386 624 599 93 397 944 97 844 56
6495 916 934 865 84 850 258 225 820 792 193 696 380 292 124 76 76
2274 588 572 169 653 847 497 234 617 755 205 115 171 215 71 907 125
8557 163 336 402 171 106 291 647 15 840 384
9561 606 416 201 567 64 662 848 51 213 54 819 784
7675 752 160 583 359 970 286 976 451 998 450 430 607
331 43 506 466 525 567 673 401 408 426 161
740 573 714 654 922 226 16 592 83 923 0 56 492 565 114 128 204 116 127 180 88
7522 20 19 664 120 920 0 131 470 820 457 785 739 924 651 81 41 576 456
4699 96 266 473 1089 414 1007 580 428 892 98
4884 249 836 552 98 175 719 699 478 845 618 973 198
9298 566 103 395 316 687 593 551 271 394 166
4915 652 526 961 835 214 123 885 62 433 745 821 204
1325 283 42 897 1036 540 24 794 155 357 918 624 46
8285 993 20 217 499 178 414 163 103 738 537 72 339 402 222 91 328 584 271 445 166
5878 864 1492 885 1385 397 775
1690 213 49 498 931 130 211 450 758 44 409
332 735 2040 955 1800 63 551 113 240
7959 935 299 777 604 766 128 873 395 647 130
6035 253 344 447 450 475 675 42 774 97 860
8327 747 412 733 54 986 604 784 426
2977 919 381 858 471 464 64 16 455 645 652 637 379 703 442
3849 111 403 380 428 373 403 324 388 260 271 349 916 233 172 947 226
537 368 1029 723 1536 388 1295 564 407
9172 427 0 41 734 56 132 604 411 565 462 128 253
199 64 70 798 784 213 263 439 614 524 194 751 306
5796 131 897 458 119 277 217 539 687 724 5 770 359 802 457 785 234
1961 753 452 553 339 961 349 62 219 885 172 806 204 37 595
3381 151 543 828 2 241 660 432 134 351 501
7140 894 534 843 70 288 412 185 238 502 316 182 246
2786 134 760 167 879 21 326
6885 149 564 750 268 986 556 695 484 784 59
5468 664 534 138 194 791 761 662 17 291 1143 775 70 576 339 769 406
5921 723 291 389 904 368 1073 193 823
7950 135 108 151 670 530 624 982 256 432 484 822 2
5767 999 1099 231 306 963 1025 199 118
515 418 434 785 321 247 436 81 209
3900 189 224 484 645 103 14 493 202 745 1229 569 1278
2103 740 551 691 233 623 425 102 533 834 170
8335 440 614 753 325 553 357 400 478 62 186 415 275
1638 623 630 102 326 832 170 454 193 678 345 421 224
8824 474 327 231 159 95 640 909 501 12 244 107 648
2084 218 562 488 530 889 511 229 167
7508 667 985 959 206 343 319 855 1141 989 233
1310 303 1535 264 368 574 105 971 399 49 1343
671 312 458 376 364 420 119 602 232 581 145 227 324
5272 797 384 106 366 184 436 766 129 873 681 647 27
561 651 317 61 326 164 340 997 250 936 125
8697 552 491 854 363 845 131 874 460 490 78 221 150
8596 894 306 481 510 555 224 823 70 185 678 693 486
5909 915 388 242 254 794 56 624 604 944 809
8514 552 56 355 164 804 618 921 490 842 131 490 71 973 57 221 448 266 331
18 252 525 413 328 500 220 702 508 153 364 759 201 474 252
3286 588 493 169 312 991 279 148 296 636 453 173 105 25 436 796 497 789 64
7632 606 832 622 679 64 262 798 51 992 283
9001 245 60 440 310 425 752 743 395 145 888 603 830 889 564
8354 80 185 264 467 916 247 574 545 795 258 76 1016
4766 87 63 887 738 275 540 230 448 50 179
7211 27 896 545 467 974 178 350 260 139 348 140 95 154 363
956 233 398 118 501 431 484 84 126
2704 249 668 552 712 842 363 355 1148 490 444
6641 959 112 837 1141 364 264 410 350 754 590 989 104
9234 954 719 403 112 224 165 774 190 722 357 159 371
1941 205 135 96 303 460 354 528 14 171 390 658 297
7108 296 556 532 340 641 469 815 471 919 559 637 593 512 264
1241 775 231 198 808 291 278 158 568 990 190 975 398
5956 985 266 72 397 402 153 777 623 101 31 445 198 647 151
7852 374 565 917 351 85 117 670 779 964 142 309 285
3508 596 665 634 715 331 797 2 340 643 893
5577 929 724 914 1519 598 1749
4065 612 588 44 1293 498 591 397 457 809 1492
4373 306 540 720 463 702 566 916 347 8 196 292 432 795 84
251 722 675 273 17 672 386 159 254 466 378 715 516 714 318
6525 105 169 668 729 492 128 75 94 323 578 938 139
6872 305 360 416 459 273 520 34 206
8002 109 74 258 321 46 539 538 714 261 484
9604 403 909 224 676 437 1307 305 618
1343 235 136 551 493 444 229 932 275 483 187
2320 661 545 282 367 295 763 935 20 875 333
7695 935 628 295 73 184 126 766 293 840 681 812 395
7039 490 270 842 460 221 262
4318 661 323 872 333 282 485 707 358 758 631
5449 559 112 36 498 112 878 526 184 773 496 383 343 549 283
7208 700 1024 586 876 483 267 980 253 411 882
8454 619 501 110 248 399 978 998 427 685 558
68 360 518 51 182 457 742 542 673
9736 764 195 952 532 126 316 366 452 45 236
9805 966 554 475 99 165 825 97 184 200 272
5547 692 733 725 278 301 261 435 643 424 931
729 149 841 750 125 22 480 204 921 317 260 626 379
643 86 940 374 583 917 400 309 262 890 478 506 12
4334 433 130 806 62 821 172 37 1532 397 317 809 1385
3342 456 485 572 782 793 337 947 756 84 59 15 511
725 674 9 689 1757 851 738 87 1344 230 168
9438 768 16 31 809 5 448 3 806
2094 849 564 603 812 743 514 836 511 229 820 218 18
323 86 342 884 478 506 637 467 595 257 848
6260 629 657 471 154 174 1146 962 129 705 873 344 1450
4966 336 561 803 98 473 222 580 48 782 557 418 122 247 724
7320 642 79 310 802 704 554 711 352 594 676
6716 843 306 823 534 248 133 607 37 236 333 288 365 481 415
1367 307 611 927 89 575 514 79 462 162 878 746 49 659 1062
748 900 371 951 454 589 662 121 716
1449 283 775 941 67 807 1036 540 1108
6100 667 561 340 578 362 100 599 595 343 301
5274 472 1081 451 698 286 42 908 624 435 1063 653 135 441 70 745 291 569 4
2792 736 178 391 664 896 371 951 401 589 232
7246 953 754 84 474 259 715 422 213
6354 648 130 608 367 276 560 371 368 69 1035 106 123 184 985
2284 446 753 434 999 210 499 251 184 384 243 977 448
6783 144 305 427 315 761 1057 443 290 628 450 565 284 632 297
2246 41 139 257 650 467 1072 94 263 604 359 529 1420
2979 268 427 448 538 233 450
8822 216 221 234 379 796 125 117 408 215 763
3956 451 779 697 217 392 90 748 406 899 624 569 1181
8160 12 292 835 501 589 262 73 506 354 37 107 254
296 463 254 408 634 210 237 633 973 363 780 242 344 7 513
2020 172 181 508 31 379 661 377 1682 119 1171
5246 514 580 390 261 194 740 737 204 27 116
9139 423 298 656 180 51 166 190 448 522 198
8438 353 1722 863 1519 186 549 929 347 591 166
1523 154 631 521 797 367 287 844 388 242 192 624 488
438 306 723 80 877 609 83 865 347 850 247 795 934
4192 86 930 374 602 884 400 670 803 861 351
583 120 99 958 697 332 171 772 804 688 183 387 303 197 714 644 283
8811 815 381 655 245 512 1028 858 559 464 1142
5246 20 896 802 0 595 135 510 767 131 1313
6392 355 353 845 490 1 450 266 727
3898 302 495 997 403 61 613 505 749 535 30
8091 987 704 529 633 116 549 801 0 180 615
1960 206 265 228 587 81 229 802 651 576 324
4203 336 271 195 99 593 786 614 608 207 261 318 588 191 556
5490 996 553 663 60 301 911 597 425 948 0 596 813 634 379
3204 983 627 895 89 307 633 575 259 590 25 548 341 254 755
369 299 621 19 903 716 326 15 183 712 160 476 206 55 477 644 258
1672 863 724 598 451 914 347 618 315 278 952 591 1290
6250 141 869 52 549 956 650 417 248 115 249
8822 339 516 579 97 78 597 342 338 491 194
3727 871 275 444 260 586 123 483 375 718 237
5631 347 505 468 507 335 87 995 408 964 526 17 443 144 856 11 13
7915 248 373 973 700 172 180 519 28 315 134 274 994 607 585
2196 661 417 872 20 985 372 707 563 499 164 295 757 777 320 873 628 812 299
9618 511 602 387 404 778 109 495 151 841 125 164 318 997 635
9314 674 255 386 260 88 290 230 767 536 716 238 100 969 255
9785 166 403 105 814 75 710 762 123 867 139
5070 523 741 480 743 28 151 39 447 640 813
8968 540 985 154 899 624 80 514 247 390 452 776 284 27 119
9504 57 701 283 218 897 67 767 730 6 303 646 579 540 15
6942 978 816 532 860 742 561 970 558
7081 241 483 52 235 765 801 417 777 316 133
478 739 870 977 7 242 127 794 97 93 213 844 809
5467 406 398 590 489 60 550 344 1303 254 683
7624 500 735 702 286 557 1209 306 928
9320 324 166 456 792 886 756 349 781 816 226 84 723
3079 996 1404 926 0 676 714 92 560 634 761
3169 543 181 499 49 202 767 501 732 265 0 47 308 561 388
5001 353 1679 176 1651 398 662 186 527 527 171 360 81 542 261
4577 736 1293 361 1054 896 454 900 401 121 389
1852 985 115 764 590 501 6 729 219 537 882 470 285 101 80 366 17 880 532
5850 15 405 587 478 579 670 203 403 901 754 84 688 259 67
7210 774 154 63 677 856 719 403 260
8181 63 1184 811 1800 113 966 518 364 774 394
8359 316 339 417 616 215 455 930 650 115 28
6475 578 430 694 404 89 428 328 322 1000 439 682 329 269 90
652 120 1157 918 697 387 296 523 154 28 193 457 657 220 989
4641 642 989 667 519 340 500 754 222 711 75 286 38 478 583 837 206 855 112
439 244 787 393 361 18 58 979 278 502 909 679 44 137 469
9262 62 438 438 542 214 301 806 835 821 349
6115 471 788 662 143 891 129 479 620 684 777 406 1169 344 406
7887 999 60 829 1025 30 975 512 338 231 269
6556 933 526 85 609 468 233 17 82 309 493 861 142
9046 322 820 756 304 989 1010 235 360
5208 36 609 200 497 475 451 881 554
7015 504 456 32 0 463 1222 381 1175
1030 177 603 168 712 786 417 401 325 682 175
5346 88 394 536 970 937 255 238 228 778 68 278 193 428 233 638 592 346 6 760 838 430 357
8709 752 687 799 286 976 597 978 104 532 117 942 558 641 58
5764 838 399 574 688 49 479
6712 748 508 449 393 563 745 29 682
881 285 282 699 702 804 198 248 192 845 57 172 243 934 700 508 489 266 151
6953 32 435 852 178 545 568 140 389
2716 209 376 100 24 198 33 320 21 158 343 859 398 503 745 992 94 99 127
7175 799 451 978 722 421 23 970 597 430 948
1980 903 448 210 707 384 965 739 634 242 507 944 7
2299 559 761 976 722 421 493 970 104 742 181 526 681 942 816
1843 288 380 326 615 502 474 960 278 137 104
5996 290 738 700 224 877 253 208 569 411 532 721 812
5756 462 561 515 300 369 222 710 648
9599 787 319 135 362 151 373 828 256 730 421 269 275 328 287 351 358 243 93
4780 307 360 927 627 600 535 271 216 590 193
5265 152 481 614 448 219 752 141 651 223 75 115 21
3860 501 1227 952 115 499 424 935 372 777 509 101 950 860 266
4857 814 604 825 556 733 327 750 536 784 64
9358 781 215 923 704 26 32 405 605 116 9 529 779 477 882
9631 231 484 30 130 95 802 554 697
2846 837 233 410 596 855 104 389 993 343 145 965 1010 756 79 235 220
3945 497 292 775 522 158 576 859 190 595 92 341 468
2397 630 359 54 283 148 597 636 360 847 279
3835 100 443 503 293 975 94 622 139 64 335 279 248 848 283
5602 114 629 729 386 178 516 808 20 584 586
1521 66 436 999 1167 199 393 655 753
59 933 408 11 430 166 745 335 778 250 290 632 315 762 143
8532 496 120 74 1663 676 543 948 1404 663 389 926 553
6130 772 247 922 403 302 346 387 225 841 250 61 258 936 635
5043 110 860 583 75 799 450 878 427 346 1072 685 41 430 14
3539 829 1099 199 87 994 1167 963 60 512 300 655 43
884 426 252 682 218 714 574 957 439 715 543 482 324 269 71
